LAMMPS (4 Feb 2020)
clear
units metal
boundary p p p
atom_style atomic
read_data ${data_file}
read_data /home/yuki/AccelNet-lammps/examples/tio2/data/tio2-relaxed-6.data
  triclinic box = (0 0 0) to (3.80348 3.80348 4.84993) with tilt (-2.12e-06 1.90172 1.90172)
  1 by 1 by 2 MPI processor grid
  reading atoms ...
  6 atoms
  read_data CPU = 0.000441201 secs
replicate ${rep_x} ${rep_y} ${rep_z}
replicate 8 ${rep_y} ${rep_z}
replicate 8 6 ${rep_z}
replicate 8 6 4
  triclinic box = (0 0 0) to (30.4278 22.8209 19.3997) with tilt (-1.272e-05 7.60686 7.60687)
  2 by 1 by 1 MPI processor grid
  1152 atoms
  replicate CPU = 0.000424318 secs
pair_style ${pair_name} ${model_1} ${model_2}
pair_style aenet ${model_1} ${model_2}
pair_style aenet Ti.15t-15t.nn ${model_2}
pair_style aenet Ti.15t-15t.nn O.15t-15t.nn
pair_coeff * *
thermo_style custom step pe
thermo ${measure_steps}
thermo 500
run ${warmup_steps} post no
run 100 post no
WARNING: No fixes defined, atoms won't move (../verlet.cpp:52)
Neighbor list info ...
  update every 1 steps, delay 10 steps, check yes
  max neighbors/atom: 2000, page size: 100000
  master list distance cutoff = 10
  ghost atom cutoff = 10
  binsize = 5, bins = 8 7 4
  1 neighbor lists, perpetual/occasional/extra = 1 0 0
  (1) pair aenet, perpetual
      attributes: full, newton on
      pair build: full/bin/atomonly
      stencil: full/bin/3d
      bin: standard
Per MPI rank memory allocation (min/avg/max) = 4.033 | 4.033 | 4.033 Mbytes
Step PotEng 
       0      -957249 
     100      -957249 
Loop time of 49.9107 on 2 procs for 100 steps with 1152 atoms

run ${measure_steps} pre no
run 500 pre no
Step PotEng 
     100      -957249 
     500      -957249 
     600      -957249 
Loop time of 249.792 on 2 procs for 500 steps with 1152 atoms

Performance: 0.173 ns/day, 138.774 hours/ns, 2.002 timesteps/s
99.8% CPU use with 2 MPI tasks x no OpenMP threads

MPI task timing breakdown:
Section |  min time  |  avg time  |  max time  |%varavg| %total
---------------------------------------------------------------
Pair    | 247.87     | 248.82     | 249.78     |   6.0 | 99.61
Neigh   | 0          | 0          | 0          |   0.0 |  0.00
Comm    | 0.012699   | 0.96615    | 1.9196     |  97.0 |  0.39
Output  | 2.664e-05  | 2.7265e-05 | 2.7891e-05 |   0.0 |  0.00
Modify  | 6.9357e-05 | 7.8529e-05 | 8.7701e-05 |   0.0 |  0.00
Other   |            | 0.002427   |            |       |  0.00

Nlocal:    576 ave 576 max 576 min
Histogram: 2 0 0 0 0 0 0 0 0 0
Nghost:    4656 ave 4656 max 4656 min
Histogram: 2 0 0 0 0 0 0 0 0 0
Neighs:    0 ave 0 max 0 min
Histogram: 2 0 0 0 0 0 0 0 0 0
FullNghs:  203904 ave 203904 max 203904 min
Histogram: 2 0 0 0 0 0 0 0 0 0

Total # of neighbors = 407808
Ave neighs/atom = 354
Neighbor list builds = 0
Dangerous builds = 0
Total wall time: 0:05:00
