LAMMPS (4 Feb 2020)
clear
units metal
boundary p p p
atom_style atomic
read_data ${data_file}
read_data /home/yuki/AccelNet-lammps/examples/water/01_Start/firstframe.start
  orthogonal box = (0 0 0) to (12.4171 12.4171 12.4171)
  1 by 1 by 2 MPI processor grid
  reading atoms ...
  192 atoms
  read_data CPU = 0.000565186 secs
replicate ${rep_x} ${rep_y} ${rep_z}
replicate 3 ${rep_y} ${rep_z}
replicate 3 2 ${rep_z}
replicate 3 2 1
  orthogonal box = (0 0 0) to (37.2513 24.8342 12.4171)
  2 by 1 by 1 MPI processor grid
  1152 atoms
  replicate CPU = 0.000397906 secs
mass 1 1.007825
mass 2 15.994915
pair_style ${pair_name} ${model_1} ${model_2}
pair_style accelnet ${model_1} ${model_2}
pair_style accelnet H.ann ${model_2}
pair_style accelnet H.ann O.ann
pair_coeff * *
thermo_style custom step pe
thermo ${measure_steps}
thermo 500
run ${warmup_steps} post no
run 100 post no
WARNING: No fixes defined, atoms won't move (../verlet.cpp:52)
Neighbor list info ...
  update every 1 steps, delay 10 steps, check yes
  max neighbors/atom: 2000, page size: 100000
  master list distance cutoff = 8.35
  ghost atom cutoff = 8.35
  binsize = 4.175, bins = 9 6 3
  1 neighbor lists, perpetual/occasional/extra = 1 0 0
  (1) pair accelnet, perpetual
      attributes: full, newton on
      pair build: full/bin/atomonly
      stencil: full/bin/3d
      bin: standard
Per MPI rank memory allocation (min/avg/max) = 3.631 | 3.633 | 3.635 Mbytes
Step PotEng 
       0   -180337.16 
     100   -180337.16 
Loop time of 2.32326 on 2 procs for 100 steps with 1152 atoms

run ${measure_steps} pre no
run 500 pre no
Step PotEng 
     100   -180337.16 
     500   -180337.16 
     600   -180337.16 
Loop time of 11.6197 on 2 procs for 500 steps with 1152 atoms

Performance: 3.718 ns/day, 6.455 hours/ns, 43.030 timesteps/s
99.2% CPU use with 2 MPI tasks x no OpenMP threads

MPI task timing breakdown:
Section |  min time  |  avg time  |  max time  |%varavg| %total
---------------------------------------------------------------
Pair    | 11.152     | 11.381     | 11.609     |   6.8 | 97.94
Neigh   | 0          | 0          | 0          |   0.0 |  0.00
Comm    | 0.0091576  | 0.2374     | 0.46565    |  46.8 |  2.04
Output  | 2.2251e-05 | 2.2441e-05 | 2.2631e-05 |   0.0 |  0.00
Modify  | 4.7449e-05 | 4.8226e-05 | 4.9002e-05 |   0.0 |  0.00
Other   |            | 0.00155    |            |       |  0.01

Nlocal:    576 ave 584 max 568 min
Histogram: 1 0 0 0 0 0 0 0 0 1
Nghost:    3642 ave 3694 max 3590 min
Histogram: 1 0 0 0 0 0 0 0 0 1
Neighs:    0 ave 0 max 0 min
Histogram: 2 0 0 0 0 0 0 0 0 0
FullNghs:  140130 ave 142226 max 138034 min
Histogram: 1 0 0 0 0 0 0 0 0 1

Total # of neighbors = 280260
Ave neighs/atom = 243.281
Neighbor list builds = 0
Dangerous builds = 0
Total wall time: 0:00:13
