LAMMPS (4 Feb 2020)
clear
units metal
boundary p p p
atom_style atomic
read_data ${data_file}
read_data /home/yuki/AccelNet-lammps/examples/water/01_Start/firstframe.start
  orthogonal box = (0 0 0) to (12.4171 12.4171 12.4171)
  1 by 1 by 2 MPI processor grid
  reading atoms ...
  192 atoms
  read_data CPU = 0.000548836 secs
replicate ${rep_x} ${rep_y} ${rep_z}
replicate 3 ${rep_y} ${rep_z}
replicate 3 2 ${rep_z}
replicate 3 2 1
  orthogonal box = (0 0 0) to (37.2513 24.8342 12.4171)
  2 by 1 by 1 MPI processor grid
  1152 atoms
  replicate CPU = 0.000409096 secs
mass 1 1.007825
mass 2 15.994915
pair_style ${pair_name} ${model_1} ${model_2}
pair_style accelnet ${model_1} ${model_2}
pair_style accelnet H.ann ${model_2}
pair_style accelnet H.ann O.ann
pair_coeff * *
timestep 0.0005
velocity all create 300.0 4928459
fix integrate all nve
fix thermostat all temp/csvr 300.0 300.0 1.0 54324
fix momentum_reset all momentum 100 linear 1 1 1
thermo_style custom step temp pe ke etotal press
thermo ${measure_steps}
thermo 5000
run ${warmup_steps} post no
run 100 post no
Neighbor list info ...
  update every 1 steps, delay 10 steps, check yes
  max neighbors/atom: 2000, page size: 100000
  master list distance cutoff = 8.35
  ghost atom cutoff = 8.35
  binsize = 4.175, bins = 9 6 3
  1 neighbor lists, perpetual/occasional/extra = 1 0 0
  (1) pair accelnet, perpetual
      attributes: full, newton on
      pair build: full/bin/atomonly
      stencil: full/bin/3d
      bin: standard
Per MPI rank memory allocation (min/avg/max) = 3.631 | 3.633 | 3.635 Mbytes
Step Temp PotEng KinEng TotEng Press 
       0          300   -180337.16    44.633528   -180292.53   -4120.7592 
     100    313.44391   -180339.39    46.633692   -180292.76    3889.0956 
Loop time of 2.33928 on 2 procs for 100 steps with 1152 atoms

run ${measure_steps} pre no
run 5000 pre no
Step Temp PotEng KinEng TotEng Press 
     100    313.44391   -180339.39    46.633692   -180292.76    3889.0956 
    5000    305.96365   -180342.49    45.520791   -180296.96    7957.1106 
    5100    305.21619   -180342.23    45.409585   -180296.82    5059.5082 
Loop time of 117.971 on 2 procs for 5000 steps with 1152 atoms

Performance: 1.831 ns/day, 13.108 hours/ns, 42.383 timesteps/s
99.0% CPU use with 2 MPI tasks x no OpenMP threads

MPI task timing breakdown:
Section |  min time  |  avg time  |  max time  |%varavg| %total
---------------------------------------------------------------
Pair    | 111.82     | 114.64     | 117.45     |  26.3 | 97.17
Neigh   | 0.33258    | 0.33568    | 0.33879    |   0.5 |  0.28
Comm    | 0.12656    | 2.9441     | 5.7617     | 164.2 |  2.50
Output  | 3.5603e-05 | 3.6441e-05 | 3.7279e-05 |   0.0 |  0.00
Modify  | 0.038103   | 0.040571   | 0.04304    |   1.2 |  0.03
Other   |            | 0.01547    |            |       |  0.01

Nlocal:    576 ave 577 max 575 min
Histogram: 1 0 0 0 0 0 0 0 0 1
Nghost:    3661.5 ave 3680 max 3643 min
Histogram: 1 0 0 0 0 0 0 0 0 1
Neighs:    0 ave 0 max 0 min
Histogram: 2 0 0 0 0 0 0 0 0 0
FullNghs:  140491 ave 141189 max 139793 min
Histogram: 1 0 0 0 0 0 0 0 0 1

Total # of neighbors = 280982
Ave neighs/atom = 243.908
Neighbor list builds = 104
Dangerous builds = 0
Total wall time: 0:02:00
