ITEM: TIMESTEP
0
ITEM: NUMBER OF ATOMS
1152
ITEM: BOX BOUNDS pp pp pp
0.0000000000000000e+00 3.7251297835256388e+01
0.0000000000000000e+00 2.4834198556837592e+01
0.0000000000000000e+00 1.2417099278418796e+01
ITEM: ATOMS id type x y z fx fy fz 
1 2 2.9704911709521791 11.021604344931998 5.3254020994507201 -0.18851284229804416 -1.2676154297282263 0.38454238160411669 
2 1 2.4836909790974153 11.645604591069674 4.7741418819415973 -0.16588184840140077 0.7993790233879805 -0.7222769349835988 
3 1 3.7344614722258798 11.412304498877607 5.8007522866596037 0.026867026373314003 0.28928585256427758 -0.21161829161288667 
4 2 11.293604452290623 11.194004413039899 0.086768434406444148 0.24385439542103876 -0.52326564158563715 -0.62094388901023101 
5 1 10.406604102395265 10.926604307686388 0.34829313707207921 -0.18833589919361221 0.081357446110470188 0.13108606481455606 
6 1 11.449104513331001 10.599104178298328 11.709404616325905 0.040707753947323289 0.29595789367529018 0.34579506929675685 
7 2 10.205504023180653 7.995033152033475 7.5217829654178621 -1.952959167546116 0.10243373635276047 -1.8710282967325935 
8 1 9.7793738554156366 7.3029528789718032 8.0675031801624097 0.1721227971318697 0.502360063287981 -0.11437467273884738 
9 1 9.4649637312778854 8.1872532275752068 6.7791426723926458 2.0131704607051644 -0.52571825493456437 1.8714566028141246 
10 2 5.7970822855522348 4.2497216753312221 5.1475620293120645 -0.02483354212524809 2.0720127144663936 -0.13506085102436857 
11 1 5.7612022710765203 5.2613620743383569 4.9832719644125616 -0.32626001330409771 -1.3950719463701451 0.38645535183267982 
12 1 6.4122925278307878 4.0216515854280868 4.4326917475541663 0.32091623999600205 -0.53092432816205659 -0.15143251735896343 
13 2 3.8017414985710816 4.3111216993802515 1.0677604209294989 1.6941126220776608 0.48923057798476971 -0.0012808754862229119 
14 1 4.5705818018203406 4.6181918207740882 1.6758806607111565 -1.1327960724543196 -0.14017552241095593 -1.1898802167798632 
15 1 3.8759015282005351 4.9442919494138504 0.26631810518189203 -0.087285757485074819 -0.14489993148627753 0.51530062500591678 
16 2 3.9124015425691776 9.8946939005891146 8.7282534409157506 -1.0235357321744991 1.1506707902914521 -0.48333464037479812 
17 1 4.3457317134266225 10.74490423589279 8.4890633465657999 0.25065651846836706 -0.72420903245722856 0.45546998517989334 
18 1 2.9833011758411585 10.195004019155942 8.4850533448684793 0.49104413401960745 -0.87801213523293908 0.082116418630161697 
19 2 8.3393232873643495 3.7590814820741132 3.4283113513389023 0.39308214350939674 -1.1569620533900895 -1.0235356030559366 
20 1 9.2067936295197406 4.0763416070170182 3.8229515068914997 -0.52025910253266527 -0.54102302399448909 -1.0238359303372502 
21 1 8.5085233542154324 3.0391911982982793 2.6565710474467563 -0.12639463702870202 1.6259774056831588 1.9338547634182244 
22 2 0.71744528292634369 3.902101538424577 9.6309337967578426 -0.79338962098446597 0.18848053515280944 2.5165293913557951 
23 1 1.2862805068999164 3.9857315715055273 8.906383511277447 2.6303297870183107 0.49702026487789747 -2.3186813830585749 
24 1 12.363104874029196 3.6633914443160664 9.142853604082843 -1.9194486403628335 -0.40270726406763241 -0.31180586586951697 
25 2 2.5230709949147001 4.4280017457352949 7.4511729374968896 0.97811231429688761 1.8433858037843489 0.32867058406906496 
26 1 2.8994311429040769 5.3669221158372968 7.400512917328701 -0.63891792816551962 -1.4600615471455654 0.1095662825992121 
27 1 2.7260310748664502 4.0410415929873871 6.5771325930620641 -0.17658395167055918 -0.15014429249184266 -0.21618256970222541 
28 2 10.402804100968941 11.807704655032975 5.5567121905866941 0.24518578059245497 -0.59464874313016136 -0.88028674125462303 
29 1 9.616253790740835 12.352204869715088 5.6265222179288745 -0.63056179319441896 0.70025665803960357 0.24513880426188761 
30 1 10.557404161755061 11.446104512483473 6.4520525436848697 0.43536494579823054 -0.028130510453629042 0.78651731544768055 
31 2 3.6445414366976498 11.934904705256042 0.44243817423489507 -0.77633759272990099 1.0612666404184414 0.18405919735148754 
32 1 3.2755612914282102 11.210204419204091 12.304504850947586 -0.0086364107653837292 0.12039184433169289 0.081450451043697608 
33 1 2.9302711551092573 0.24166009511830802 0.49262919416827827 0.65681916327489043 -0.96069759939700461 -0.37873615972848429 
34 2 5.5036721694639033 8.183633226305572 11.082804369100916 -0.39348897692215323 0.051963351672905313 -1.3712886462453777 
35 1 6.2577024669063785 7.923083123592825 10.496004137706032 0.043004798157563973 0.11444997879229936 0.4084902509124107 
36 1 5.8598723099586758 8.4768733415697497 11.92740470207886 0.4852605084378982 -0.067803689829869812 1.2885245504958247 
37 2 7.1908228346642531 3.1664412483590785 10.594704176702498 -0.72741794226186951 0.14743510448593916 -0.14616383107592806 
38 1 6.5512525826461978 3.464581365713125 9.9003339030291553 0.68424104452981749 -0.0412519168605055 0.4252485401088355 
39 1 6.6159226080423776 2.8479011225959403 11.337604469307268 0.10172721701248497 -0.13896832330430645 -0.43100636970656603 
40 2 5.2716720783446682 1.9218107576355168 12.396404887141021 0.51218713430905582 2.7639736202985263 0.78943490346925982 
41 1 4.6910818494450197 1.1863804675644385 12.334604862802594 -1.1124302717752332 -1.5588307087556037 -0.024588071405835129 
42 1 4.6916418496385033 2.6821710575012929 0.35009513787044594 0.81544877624167156 -0.88389271588715668 -0.4250847565429402 
43 2 5.0477319900669197 11.869504679371399 6.7558526632023783 0.18841924439702695 0.45538909148034123 0.40396534265637396 
44 1 5.7240722564240603 11.224804425269056 7.0185827669896161 0.32209202405094078 0.10412905043347236 -0.058998077665418862 
45 1 5.2667920765073992 0.31234412318013349 7.2043328399273818 0.067624802711278728 -0.21089212083699141 -0.42402338464303629 
46 2 0.54936121641170799 10.061203966539134 2.1976808665107979 0.16353668734550431 0.35529781657404969 -0.53503639751604892 
47 1 1.0159204006748981 10.777204248545713 2.7246210742564401 -0.52993668506038605 -0.25527094539867895 -0.93723941213671391 
48 1 0.1296840509036539 10.412804105028789 1.352370533296994 0.48634490895838711 0.058652234011131232 1.1964287261324065 
49 2 11.390304490369283 1.0552104161492506 9.8494538827282572 -1.1219173783800005 1.7460213514716165 -0.82926067950958793 
50 1 11.573304562706538 0.20124107954020051 9.4812837378993233 0.053699051226839503 -1.3820246444832904 -0.48861292351812791 
51 1 10.87410428703366 1.5012705919436298 9.0729135769508886 0.77460561347721602 -0.39280831223707124 1.0215752838100352 
52 2 9.4717137337140045 9.2332736401051143 4.6154218193918002 -0.64860000874500867 0.69931902870633211 1.1034155802325361 
53 1 10.267604047603832 8.8655434950124192 4.1935616534328366 0.3548957028169229 -0.16331829249234156 -0.58118764315902738 
54 1 9.7673338504619629 10.065403968254852 5.065601996949856 0.14665558888663977 -0.11528604275115746 -0.2076186448679673 
55 2 4.2676916824188016 6.9918027563194913 7.6642530214365534 -0.28351597014166446 1.4665163817039288 1.2655777885600783 
56 1 4.0066315793503042 7.6371030105913409 6.9413027365845679 0.14933815139249801 -0.78511793658333828 0.094816955413187048 
57 1 4.1704616442609677 7.5601629802470676 8.4970733495695541 0.14492743964152835 -0.97060307281201963 -1.3857129986235734 
58 2 7.384252910935885 8.2698932600589661 7.1154528048340762 -0.56590584938645072 0.72355335367210527 1.0379964974269953 
59 1 6.6786026329116392 7.8822031073517751 7.6736230252125841 0.17900486880572278 -0.010644467945151241 -0.62833547799665579 
60 1 7.6158030024571683 9.0714235763888329 7.6889430313751195 0.074992310016568697 -0.51249999918692668 -0.41725475308998206 
61 2 0.14064105554078637 7.3286328889783841 0.20004107867201124 -0.93433891587271667 -0.28260675939833041 -1.4479708499120501 
62 1 0.79799431453361835 7.5729629852743354 0.80137031589660279 1.498425037336125 0.8328785186510963 2.2549866172695352 
63 1 0.71618728211938143 7.1738628278972874 11.83790466656345 -0.35431107221538444 -0.33539907264736435 -0.88932457765629902 
64 2 5.781172279081904 2.1989308666875433 7.5243429665291517 -0.49185172834168822 0.074651505726093872 0.50588634515350328 
65 1 5.530992180604092 2.8259111139493283 6.818332688191532 0.23078967786317672 -0.065988880406382913 -0.055210969138527084 
66 1 5.2307520621275962 2.4647609715269554 8.3083432755076814 0.27614808121861356 -0.1146704399594793 -0.44995175301415119 
67 2 7.9667831405247176 10.450704120145732 8.7458134478522229 -0.72295882912881138 -1.2522233982218984 -0.21507562645136777 
68 1 7.1705128265980935 10.532404151870031 9.3210736747874723 0.49376836609362379 0.68919652636149697 -0.061041615864890798 
69 1 8.3342032856709487 11.314604460340043 8.5081733542929463 -0.31843088752154447 0.64743720355893986 0.18231963302720922 
70 2 12.081704762780227 9.4935637427091297 10.311904065234408 0.91173936411735501 0.25903817898354398 0.71486304649360433 
71 1 11.687104607203651 8.6900434258523447 10.706504220810984 0.37854328578832819 0.3497435831206735 -0.12875624683812381 
72 1 0.58955323243016799 9.6084237878937664 10.653504199664216 -1.082999341011047 -0.48486580611416569 -0.39905993657658712 
73 2 1.22896048463854 4.0215515852234436 1.9215007576890526 -0.030672789012383295 -0.098620766311934782 0.20760340256035467 
74 1 2.1466208460532137 4.0991516159658454 1.6157406367005833 0.47359645107347509 0.37601147671248913 0.23921801315568347 
75 1 0.72963628753814169 4.4118217392945223 1.205210474930255 -0.50137234647996187 -0.10125585916679358 -0.11166971327410259 
76 2 8.0837731869461162 5.7001322472265539 12.174604799432565 -0.2481460950475172 -0.040975128004023663 -0.35736467419796969 
77 1 8.0245731636950008 4.8491519114583985 11.682504605727713 -0.05381951612325999 0.062023456060909241 0.31351289776821339 
78 1 8.9559335303912011 5.7188322542734165 0.1929180761552097 0.37936357588727426 -0.14319017994767411 -0.054278291006196487 
79 2 4.0697316042323859 1.7749406994918195 3.2816312937427803 0.31986591195079589 -0.92360995882933561 0.47751805682661763 
80 1 4.570011801765145 2.3304309188309724 2.6601210486260598 -0.0061310727289838754 -0.42369767700743061 0.20645246547161947 
81 1 4.6924518500790073 0.99099039088020047 3.606531421514354 -0.27409350336935351 1.2303233376370311 -0.97805955124228239 
82 2 9.2126736318159121 9.0510135681180319 11.055404358537862 0.86178698866420644 -0.67093913428151231 0.68441207472437493 
83 1 8.7888834650294765 9.8825238958456634 10.903604298719163 -0.37935066145643975 1.1017598060713374 -0.2748970889688479 
84 1 8.8671934954785616 8.4886833465290028 10.316104066950128 0.14209819902993384 0.38856610702890065 0.29446819747310726 
85 2 11.278304446380686 2.7753610938474949 0.25869310188120209 -0.58672151888193191 0.63203933895054154 -0.23235750415133452 
86 1 11.033304349824895 2.4666809724927163 11.790004647915836 0.14010781329513136 -0.32741824570477246 -0.24237086035870561 
87 1 10.891704293946153 3.7006114587822809 0.25705710132729159 0.80335349830481084 -0.63684210623458271 0.39865547770018711 
88 2 8.2016032333931506 1.6324206436353956 1.5682106182280566 -1.5001211955592197 -0.5115341143903871 -0.095720415944489864 
89 1 7.2671828650916206 1.6865006646639324 1.2142504785072221 0.89020210186975779 0.27020758371782583 0.2397435547966757 
90 1 8.0839931870788249 0.85630033734166577 2.1817008599501357 0.50996769790842134 0.094823584259244087 -0.27928219752142791 
91 2 3.2482512806789106 7.9039831157273888 5.2566620721285968 0.75372261545975361 -1.0690731866144991 -0.43133806159034455 
92 1 3.9975815759116258 7.5729029855748911 4.623711822756885 -1.0715439421889108 0.76499820157915122 0.81443704053053145 
93 1 3.1006312223233312 8.8394634847164433 5.0957520086425978 0.20890124547043479 0.59402758454280347 -0.33434933303075259 
94 2 5.8264322966661837 12.370104876712334 3.7802514904185096 0.68073839876466813 -2.18636597386711 1.9586750375403505 
95 1 6.3821325157471573 11.835004665391386 3.1185912295491995 -0.68790026010124128 0.56542040083945544 1.321589971398101 
96 1 5.8709323147060459 11.806404654489318 4.675951843300882 -0.05122392506469553 1.5388712182362223 -2.8367526111040862 
97 2 2.7629410893862012 9.6734638134650321 11.419404501765388 -0.049227800718222942 1.1406951259410425 -1.2093695195535923 
98 1 3.3024113016594918 9.762083848449608 10.590604175191421 -0.35240921674409981 0.1115966004149655 0.33804338838449333 
99 1 2.9721411719474977 8.7946534672592929 11.670604600954706 0.29658798556376958 -1.3234544014043021 0.68685095923361628 
100 2 6.6683126286287511 9.4454137238144984 4.6364818276698427 0.86156824601952642 0.13053486729286357 1.4099877030652732 
101 1 7.6595330195033711 9.4931337423054227 4.481741766703057 -1.065793826525004 -0.15097451951744661 0.058222590106963852 
102 1 6.6512826223006289 9.2519636472902658 5.6279522187914841 0.13490085795549697 0.074742274345998019 -1.3426459814783294 
103 2 8.6987034293925163 12.181204802355486 11.285004448979073 1.0903134544478303 0.15366216853686993 -0.49937810379482589 
104 1 9.6388137999718175 12.318904856603263 11.023804345729912 -0.45675437379696182 -0.26361060601100517 0.271098254672135 
105 1 8.5805733828607273 0.40233315865377162 11.987004725619373 -0.24662626525240788 0.35270348957613029 0.42259209280900595 
106 2 11.870304679421016 1.2341904863982955 3.6429614363218414 0.69252209562744005 0.69859701618552128 -2.3932974011141637 
107 1 11.556004555878797 0.95618437700424097 4.4926917713840746 -0.64844786961628753 -0.9851030734021593 1.1358968272923686 
108 1 11.432504506877409 0.76519230162598373 2.8894911390728506 0.081034987245189039 0.37582837452372519 1.3333363309379918 
109 2 11.266304441403033 10.947804315615919 8.027933164855904 -1.3212592138305967 -0.69803593035857625 0.30813757671167902 
110 1 11.016704342842127 10.030703954394728 8.3552532940872783 0.3695597887386155 1.072987869431286 -0.39435347654348707 
111 1 12.236004823481595 10.918604304544345 7.9084831175278616 0.46878585550534829 -0.24242787864134732 -0.088885486437603523 
112 2 8.9500535280950295 8.947213527151586 1.4728605805307846 -0.16118924336437182 0.15351973230327071 1.2190639846265801 
113 1 9.2149636329567599 8.9427735255797351 0.55692921938937212 0.16283473979174573 -0.10091570799599772 -1.5809918455760146 
114 1 9.6785038157355672 8.5127033556785516 1.9622507736111483 0.25890300320097198 -0.20501322545519254 0.35179037061228935 
115 2 0.56857922391536131 1.5072605943061563 6.2568824666041634 -0.55894845632353563 0.06266437602851152 -0.31304961094467432 
116 1 1.0299104061794673 1.5539806128673561 7.1144828044894854 0.28219553941572167 -0.22086775517325088 0.43994049306253674 
117 1 1.1401504496355674 2.0707608161198858 5.698682246640522 -0.13020220768131638 0.15586698037640614 0.00089002762587124529 
118 2 2.7192910717628642 7.7536630566090325 1.9447307666506983 -1.5545828955991932 0.30757472649094086 0.33049599819483733 
119 1 3.5235413891081087 7.5070929595391434 1.4881705868316089 0.49330150523797506 0.47835012445345493 -0.036360620250386333 
120 1 2.6735510539371448 8.7295134414833839 2.1160908343236748 0.84223341716696831 -0.99346116246916372 -0.42140297301214091 
121 2 8.2317232449715814 1.406090554541334 5.5510521884232311 0.97931568191862439 -0.46197700509904854 -0.38313918988111828 
122 1 7.5676329833099363 1.3258305224829998 6.2328124570877028 -0.56545462677120495 0.19426117155759953 0.52471656680681988 
123 1 8.0531231747593335 2.1819308599445559 5.0072219740009558 -0.12920880312265531 0.31704051164687119 -0.23456537340113831 
124 2 3.7983714975484659 6.0778623958499187 11.343904472145436 0.53829131587353862 0.10805862369601785 0.10652665274121255 
125 1 4.5056017764776959 6.7885926761207207 11.247704434031638 -0.55502379204502084 -0.49573230403819502 0.12333566533221006 
126 1 2.9819411755980587 6.4187025302061329 10.911804301741313 0.01043121963115433 -0.26608425977386085 0.058411457175156341 
127 2 11.134204389619276 4.5683618007698268 3.6025214203462097 0.38414797167047798 -0.0003530365997865912 0.018963401976573892 
128 1 11.820004659566203 5.2815420820855623 3.7030314597129048 -0.10715124993355549 -0.6690013172220497 0.2077137863097876 
129 1 11.62520458318976 3.7131714639534175 3.5458113975868737 -0.22995593989322249 0.59771152605747435 -0.086608920414391805 
130 2 11.217304422091877 8.2054132346811848 2.9292411545360437 0.8350682270293982 0.75330887318015494 -0.65498402473263884 
131 1 11.963204716073355 8.8596634927162476 2.5992510246562035 -1.0441353477451316 -1.0476496976086387 0.92073017291986903 
132 1 11.648604591917206 7.4352029313271153 3.3689113282076777 0.32738657468982052 0.6152787653381292 -0.33264362832757616 
133 2 8.4934333480473185 0.82399932507299523 8.4979333498477914 -0.15132444164355086 0.27368722393770939 1.3212601294008097 
134 1 7.7515330559014499 1.4236505614778057 8.6362434046559606 -0.61492488348991403 0.4489375771328008 -1.0058793787016416 
135 1 8.6512534103428553 0.77390030524321551 9.4716737337379833 0.59674252047704113 -0.71810164246398511 -0.2664366523770465 
136 2 0.72941528778968545 7.2927228749175361 7.4705629450561899 -0.61517528951320166 0.25715582910753082 -1.6100227351585765 
137 1 12.236804824060387 7.3941229146767791 7.0126527643265346 1.5746897919640364 -0.10287415437561589 1.052514387167846 
138 1 1.4104505561611411 7.5248429664940142 6.7899226767786871 -0.75734985821959089 -0.19758301030229897 0.68684638221450089 
139 2 5.6965422455420516 11.070204363953758 10.706404220606341 -0.14598933320925289 -0.08480710134179581 0.27565664517826538 
140 1 5.5877822027862942 11.666004598949588 11.482604526852114 0.13694972953854728 -0.72683172063502788 -0.42426645912868211 
141 1 5.4388021441876155 10.163204006467883 10.998304335880018 0.23633461818633544 0.66886532023082612 -0.11805395832168469 
142 2 7.8937031118353884 7.313082882821428 9.7889938589095102 -0.85384242261973986 -1.0658950851017592 -2.5428765400194093 
143 1 8.030273165834485 6.7224926503911089 10.536504153910284 0.04189988121891354 -0.76773183307438153 0.86279679043613222 
144 1 7.6787630271585838 6.7054126431668992 8.9883335432487677 0.40582775663914961 0.88375870689535074 1.8286036081130912 
145 2 8.1703932210128851 11.474104523216033 2.8631611285298542 1.4260315083215704 -1.642617635777353 -0.31667020322440576 
146 1 8.6619034149391183 11.519004541016113 3.7052114607873969 -0.29163829412836684 0.46875661620122466 0.039684874833045419 
147 1 8.5780133817494377 10.598804178213573 2.5019509864080365 -0.99036699493007063 1.3347571831622511 0.026908523996491331 
148 2 1.5121405961434258 10.973804325959851 7.7483730546206555 -0.015150582935332779 -1.7283700912856663 -1.2825801920878817 
149 1 1.730050682082626 10.943304314344623 6.763672666187734 0.15608426528241426 0.17056661199234982 0.90080946699802722 
150 1 1.7669206966263544 11.80740465494822 8.1137331986204586 0.22145104320708825 1.682156336275672 0.31881937785304038 
151 2 10.77580424832659 2.7222510731635499 7.6400330118777164 0.075504144632489362 -0.68729266895959618 -1.2245199460081526 
152 1 11.582804566272344 2.3631709317493139 7.1720428271361696 -0.31745285752160102 0.20421672163816676 0.10681460101231494 
153 1 10.089403977680981 2.4292809578698145 6.9902727557814153 0.22711377351440215 0.30625577752735256 0.92879735311292277 
154 2 2.0730108172847106 1.6255006409042994 0.000299719091655248 0.0099530283406512321 0.70888725116627838 0.25798309193898372 
155 1 2.3159209131089411 2.4729909746634182 0.41754716480047227 0.053296151103174594 -0.43779743350488814 -0.06391793056509798 
156 1 1.1088204373272357 1.6985306697558959 0.056515422074285927 -0.4807987608823433 -0.17735682293454189 -0.057523432701645436 
157 2 10.840804273921833 5.4301421406474439 0.71507328207278165 0.61575634601188922 0.74538828262445922 0.39714617294312798 
158 1 11.010904340498 5.3565521116023644 1.6739606597453953 -0.65841115135437978 -0.60064005855000835 0.33166503083660376 
159 1 11.518004540557213 6.1664724309727816 0.5653902226651798 -0.41729498435989759 -0.27537145199210727 -0.66587000341532998 
160 2 2.4031209476217938 3.182021254630345 4.9864719656693781 -0.48669309201937805 -0.16624996642436418 -1.6330597440133743 
161 1 1.8977307482573451 3.4126213455304586 4.1355116301538226 0.82759914355161057 -0.21174800076402489 1.3273462898649611 
162 1 3.0670212092650408 2.5037509869165544 4.6764418434040333 -0.24767001164947886 0.62455039498066678 -0.20822197375096915 
163 2 0.75826529893877193 6.6238626114849755 3.8923715343351719 -0.67101733965824062 -0.23604103664731335 1.6133796145838999 
164 1 1.2483704919212633 6.6832026349167561 3.0827912155547059 1.1246059409656912 0.13096398747889604 -0.8009551607301556 
165 1 1.3320605252308348 6.9164727264653365 4.6485718324612497 -0.027479254344338178 -0.19655188313119498 -0.9506509694539067 
166 2 5.5806421999224893 7.1014027996300628 3.9435015548830892 0.26991733012963454 -0.54114932954878348 0.51726627274357606 
167 1 5.9262723363022172 6.6629526265500409 3.1271612327464373 -0.49494672853441085 0.33675536104203174 -0.15000772189473921 
168 1 6.2032224455884455 7.8297230864224696 4.1982316549991072 -0.30505470955664921 0.19969166729033716 -0.30295657349685218 
169 2 4.120171624267865 10.237404036073357 2.4244409560085671 -0.77636555379417227 -0.60095727675418542 1.7604030106831718 
170 1 3.680221450764078 10.987904331530775 2.0140607937514381 0.22264798159527505 0.80311106975041702 -1.5148407356367715 
171 1 3.7330914715918917 10.372104088944427 3.3200413086862963 0.86826570209322995 -0.57918795836653802 0.044325810040019287 
172 2 1.9523707694793666 12.386204882671885 3.1990812610727763 -0.79030182095666401 0.55973833055578914 -0.34143564987042191 
173 1 2.6801710565834878 0.58561123106250834 2.9333811565523189 -0.075616546027698156 -0.12852603370852264 0.11205937297174173 
174 1 1.121160441836486 0.53471921061005123 3.1264312322579766 0.59393751757474411 -0.54037500898246393 0.57557128648731715 
175 2 6.6901426373712747 5.3322221019771732 8.3199832801719591 0.85146557660017741 -0.28529501526343931 -0.71757336130903149 
176 1 5.8127622914989674 5.6848022412023083 8.1110631974428156 -0.12914132748625926 0.11102325902969636 -0.4200347681260812 
177 1 7.1391728144280506 5.0769620012528032 7.4620929415344177 -0.85649760921496265 0.20749060575342576 0.82483181184238019 
178 2 6.2475624631950435 8.5654333768548785 1.2902905085972374 1.3630831705850068 -0.90645236418033082 -0.75461801850853427 
179 1 5.8718823147980386 9.1341436007049417 1.9729407776542569 0.029934303594714322 0.31751903883238281 0.42795528306993441 
180 1 7.2635228633167861 8.5176433577444453 1.3992405513713932 -1.7066953010816519 0.56296630467549491 0.15783394016340777 
181 2 4.0812816090829092 3.1650912479776898 9.5824037778264124 0.13373007684623134 -0.22913531143168792 0.60153390250284366 
182 1 4.16980164386284 3.4074913434461696 10.533204152448825 -0.22998337111942577 0.011346726651045701 -0.78983992342285814 
183 1 3.6320614320077342 3.8943415351386661 9.1173235941186395 -0.042623029756595099 0.18325770120586451 -0.0076408918081016684 
184 2 6.2433024612507015 5.5372921829130819 1.8283107208136733 0.64253297389191977 -0.94311740015812795 1.3201625700083255 
185 1 6.8959927186333783 5.9261023360072409 1.2104304773574766 -0.18343428871488909 -0.23582071059716936 -0.11489348679880018 
186 1 6.7820226738412872 5.0069119740544918 2.4937309831332848 -0.39943094594780837 0.62343284293382695 -1.1070703093765855 
187 2 1.2359304872073695 6.6533726230321895 10.195404019445339 -0.72410869841890468 -1.5615951297997193 4.5238238834834217 
188 1 0.82126032394994319 5.782382279811805 10.038903957416879 0.12663163176063089 -0.2155672609674105 -0.32379883944086779 
189 1 1.4575805748734485 7.0325527722415861 9.4123637104205145 0.52065187780500843 1.7973154846450363 -4.1347112008487388 
190 2 1.7294806820274307 1.2765105033636661 8.6733834191701309 -0.43333125513569648 -0.66877518702740602 -0.35161872043698461 
191 1 0.87497734475951017 1.4490105711470334 9.1501236072656038 1.1126944224725395 0.36183855537839948 0.30303138366738369 
192 1 2.5056009877919831 1.7664406963849144 8.9791935399963361 -0.44157183739371542 0.34967540651000856 0.67436031217207226 
193 2 15.387590449370975 11.021604344931998 5.3254020994507201 -0.18851284229801304 -1.2676154297282123 0.38454238160413634 
194 1 14.900790257516212 11.645604591069674 4.7741418819415973 -0.1658818484014038 0.79937902338798272 -0.72227693498359979 
195 1 16.151560750644677 11.412304498877607 5.8007522866596037 0.026867026373284815 0.28928585256426209 -0.21161829161290371 
196 2 23.710703730709419 11.194004413039899 0.086768434406444148 0.2438543954209435 -0.52326564158566768 -0.62094388901020325 
197 1 22.823703380814059 10.926604307686388 0.34829313707207921 -0.18833589919351396 0.081357446110500942 0.13108606481452564 
198 1 23.866203791749797 10.599104178298328 11.709404616325905 0.040707753947321873 0.29595789367529107 0.34579506929675508 
199 2 22.622603301599447 7.995033152033475 7.5217829654178621 -1.9529591675461087 0.10243373635275797 -1.8710282967325909 
200 1 22.196473133834431 7.3029528789718032 8.0675031801624097 0.1721227971318707 0.50236006328797989 -0.11437467273884838 
201 1 21.88206300969668 8.1872532275752068 6.7791426723926458 2.0131704607051639 -0.52571825493456381 1.871456602814122 
202 2 18.214181563971032 4.2497216753312221 5.1475620293120645 -0.024833542125281959 2.0720127144664087 -0.13506085102433529 
203 1 18.178301549495316 5.2613620743383569 4.9832719644125616 -0.32626001330409438 -1.3950719463701482 0.38645535183268148 
204 1 18.829391806249582 4.0216515854280868 4.4326917475541663 0.32091623999603286 -0.53092432816206814 -0.15143251735899951 
205 2 16.218840776989879 4.3111216993802515 1.0677604209294989 1.6941126220776155 0.48923057798476027 -0.0012808754862501481 
206 1 16.987681080239135 4.6181918207740882 1.6758806607111565 -1.1327960724542769 -0.14017552241094794 -1.1898802167798339 
207 1 16.293000806619332 4.9442919494138504 0.26631810518189203 -0.087285757485076595 -0.14489993148628008 0.51530062500591722 
208 2 16.329500820987974 9.8946939005891146 8.7282534409157506 -1.0235357321744893 1.1506707902914473 -0.48333464037479545 
209 1 16.762830991845419 10.74490423589279 8.4890633465657999 0.25065651846836334 -0.72420903245722756 0.45546998517989573 
210 1 15.400400454259955 10.195004019155942 8.4850533448684793 0.49104413401959723 -0.87801213523293553 0.082116418630161087 
211 2 20.756422565783147 3.7590814820741132 3.4283113513389023 0.39308214350934323 -1.1569620533901119 -1.0235356030559688 
212 1 21.623892907938536 4.0763416070170182 3.8229515068914997 -0.52025910253260821 -0.54102302399447288 -1.0238359303372233 
213 1 20.92562263263423 3.0391911982982793 2.6565710474467563 -0.12639463702870379 1.6259774056831611 1.9338547634182286 
214 2 13.134544561345139 3.902101538424577 9.6309337967578426 -0.79338962098449184 0.18848053515279337 2.5165293913557134 
215 1 13.703379785318713 3.9857315715055273 8.906383511277447 2.6303297870182636 0.49702026487788947 -2.3186813830585304 
216 1 24.780204152447993 3.6633914443160664 9.142853604082843 -1.9194486403628401 -0.40270726406763607 -0.31180586586951486 
217 2 14.940170273333496 4.4280017457352949 7.4511729374968896 0.97811231429688972 1.8433858037843485 0.32867058406906458 
218 1 15.316530421322874 5.3669221158372968 7.400512917328701 -0.63891792816552062 -1.4600615471455636 0.10956628259921165 
219 1 15.143130353285246 4.0410415929873871 6.5771325930620641 -0.17658395167055954 -0.15014429249184136 -0.21618256970222458 
220 2 22.819903379387739 11.807704655032975 5.5567121905866941 0.24518578059241053 -0.59464874313013549 -0.88028674125463235 
221 1 22.033353069159631 12.352204869715088 5.6265222179288745 -0.63056179319439121 0.70025665803958936 0.24513880426187745 
222 1 22.974503440173855 11.446104512483473 6.4520525436848697 0.43536494579824275 -0.028130510453640008 0.78651731544770076 
223 2 16.061640715116447 11.934904705256042 0.44243817423489507 -0.77633759272993941 1.061266640418471 0.18405919735148604 
224 1 15.692660569847007 11.210204419204091 12.304504850947586 -0.0086364107653829625 0.12039184433169192 0.081450451043698247 
225 1 15.347370433528052 0.24166009511830802 0.49262919416827827 0.65681916327492296 -0.96069759939702792 -0.37873615972848568 
226 2 17.9207714478827 8.183633226305572 11.082804369100916 -0.39348897692214768 0.051963351672876759 -1.3712886462454539 
227 1 18.674801745325176 7.923083123592825 10.496004137706032 0.043004798157531221 0.11444997879231023 0.40849025091243862 
228 1 18.276971588377471 8.4768733415697497 11.92740470207886 0.48526050843792501 -0.067803689829853797 1.2885245504958729 
229 2 19.607922113083049 3.1664412483590785 10.594704176702498 -0.72741794226180201 0.14743510448593811 -0.14616383107592418 
230 1 18.968351861064995 3.464581365713125 9.9003339030291553 0.68424104452977752 -0.04125191686049455 0.4252485401088078 
231 1 19.033021886461174 2.8479011225959403 11.337604469307268 0.10172721701245749 -0.13896832330431597 -0.43100636970654016 
232 2 17.688771356763464 1.9218107576355168 12.396404887141021 0.51218713430905694 2.7639736202985281 0.7894349034692576 
233 1 17.108181127863816 1.1863804675644385 12.334604862802594 -1.1124302717752337 -1.5588307087556033 -0.024588071405834772 
234 1 17.1087411280573 2.6821710575012929 0.35009513787044594 0.81544877624167089 -0.88389271588715801 -0.42508475654293926 
235 2 17.464831268485717 11.869504679371399 6.7558526632023783 0.18841924439692101 0.45538909148040108 0.40396534265631834 
236 1 18.141171534842854 11.224804425269056 7.0185827669896161 0.32209202405103465 0.10412905043339679 -0.05899807766538108 
237 1 17.683891354926196 0.31234412318013349 7.2043328399273818 0.067624802711290677 -0.21089212083698461 -0.42402338464302591 
238 2 12.966460494830503 10.061203966539134 2.1976808665107979 0.1635366873455035 0.35529781657405185 -0.53503639751605103 
239 1 13.433019679093693 10.777204248545713 2.7246210742564401 -0.52993668506038238 -0.25527094539868278 -0.93723941213671236 
240 1 12.54678332932245 10.412804105028789 1.352370533296994 0.48634490895838611 0.05865223401112718 1.1964287261324051 
241 2 23.807403768788078 1.0552104161492506 9.8494538827282572 -1.1219173783799701 1.7460213514715481 -0.82926067950957849 
242 1 23.990403841125335 0.20124107954020051 9.4812837378993233 0.053699051226822531 -1.3820246444832329 -0.48861292351810776 
243 1 23.291203565452456 1.5012705919436298 9.0729135769508886 0.77460561347719414 -0.39280831223706547 1.0215752838100063 
244 2 21.8888130121328 9.2332736401051143 4.6154218193918002 -0.648600008745015 0.69931902870632556 1.1034155802325314 
245 1 22.684703326022628 8.8655434950124192 4.1935616534328366 0.35489570281692617 -0.16331829249234117 -0.58118764315902904 
246 1 22.184433128880759 10.065403968254852 5.065601996949856 0.14665558888664307 -0.11528604275115319 -0.20761864486796713 
247 2 16.684790960837596 6.9918027563194913 7.6642530214365534 -0.28351597014165497 1.4665163817039162 1.2655777885600854 
248 1 16.423730857769101 7.6371030105913409 6.9413027365845679 0.14933815139249004 -0.78511793658333207 0.094816955413179194 
249 1 16.587560922679764 7.5601629802470676 8.4970733495695541 0.14492743964152244 -0.97060307281201574 -1.3857129986235732 
250 2 19.801352189354681 8.2698932600589661 7.1154528048340762 -0.56590584938640309 0.72355335367212681 1.0379964974269602 
251 1 19.095701911330437 7.8822031073517751 7.6736230252125841 0.17900486880567937 -0.010644467945170256 -0.6283354779966196 
252 1 20.032902280875966 9.0714235763888329 7.6889430313751195 0.074992310016561536 -0.51249999918692657 -0.41725475308998006 
253 2 12.557740333959583 7.3286328889783841 0.20004107867201124 -0.93433891587276263 -0.28260675939835295 -1.4479708499120945 
254 1 13.215093592952414 7.5729629852743354 0.80137031589660279 1.498425037336172 0.83287851865111595 2.2549866172695729 
255 1 13.133286560538178 7.1738628278972874 11.83790466656345 -0.35431107221538433 -0.33539907264736285 -0.8893245776562958 
256 2 18.1982715575007 2.1989308666875433 7.5243429665291517 -0.49185172834169238 0.074651505726096495 0.50588634515350306 
257 1 17.948091459022887 2.8259111139493283 6.818332688191532 0.23078967786317794 -0.065988880406385508 -0.055210969138527299 
258 1 17.647851340546392 2.4647609715269554 8.3083432755076814 0.27614808121861256 -0.1146704399594787 -0.4499517530141503 
259 2 20.383882418943514 10.450704120145732 8.7458134478522229 -0.72295882912890186 -1.2522233982218991 -0.21507562645130388 
260 1 19.587612105016888 10.532404151870031 9.3210736747874723 0.49376836609370983 0.68919652636148732 -0.061041615864948523 
261 1 20.751302564089745 11.314604460340043 8.5081733542929463 -0.31843088752153953 0.64743720355894718 0.182319633027205 
262 2 24.498804041199023 9.4935637427091297 10.311904065234408 0.91173936411741596 0.25903817898354886 0.7148630464936272 
263 1 24.104203885622447 8.6900434258523447 10.706504220810984 0.37854328578832652 0.34974358312067416 -0.12875624683812406 
264 1 13.006652510848964 9.6084237878937664 10.653504199664216 -1.0829993410109953 -0.48486580611416003 -0.39905993657657002 
265 2 13.646059763057336 4.0215515852234436 1.9215007576890526 -0.03067278901237154 -0.098620766311930147 0.20760340256035595 
266 1 14.56372012447201 4.0991516159658454 1.6157406367005833 0.47359645107347403 0.37601147671248697 0.23921801315568314 
267 1 13.146735565956938 4.4118217392945223 1.205210474930255 -0.50137234647996332 -0.10125585916679351 -0.11166971327410175 
268 2 20.500872465364914 5.7001322472265539 12.174604799432565 -0.24814609504765728 -0.040975128004030525 -0.35736467419803436 
269 1 20.441672442113799 4.8491519114583985 11.682504605727713 -0.053819516123263252 0.062023456060908699 0.31351289776821301 
270 1 21.373032808809995 5.7188322542734165 0.1929180761552097 0.37936357588740882 -0.14319017994766747 -0.054278291006128007 
271 2 16.486830882651184 1.7749406994918195 3.2816312937427803 0.31986591195071234 -0.92360995882934838 0.47751805682665799 
272 1 16.98711108018394 2.3304309188309724 2.6601210486260598 -0.0061310727289403712 -0.42369767700739813 0.20645246547157772 
273 1 17.109551128497802 0.99099039088020047 3.606531421514354 -0.27409350336932081 1.2303233376370186 -0.97805955124228228 
274 2 21.629772910234706 9.0510135681180319 11.055404358537862 0.86178698866425563 -0.67093913428160412 0.68441207472440602 
275 1 21.205982743448274 9.8825238958456634 10.903604298719163 -0.3793506614564871 1.1017598060714275 -0.27489708896886839 
276 1 21.284292773897356 8.4886833465290028 10.316104066950128 0.14209819902993143 0.38856610702890015 0.2944681974731021 
277 2 23.695403724799483 2.7753610938474949 0.25869310188120209 -0.58672151888194091 0.63203933895053266 -0.23235750415136322 
278 1 23.450403628243691 2.4666809724927163 11.790004647915836 0.1401078132951398 -0.32741824570476452 -0.24237086035867803 
279 1 23.308803572364951 3.7006114587822809 0.25705710132729159 0.8033534983048104 -0.63684210623457793 0.39865547770018817 
280 2 20.618702511811946 1.6324206436353956 1.5682106182280566 -1.5001211955592553 -0.51153411439038177 -0.095720415944501161 
281 1 19.684282143510416 1.6865006646639324 1.2142504785072221 0.89020210186979398 0.27020758371782305 0.23974355479668763 
282 1 20.501092465497621 0.85630033734166577 2.1817008599501357 0.50996769790842056 0.094823584259241644 -0.27928219752142641 
283 2 15.665350559097707 7.9039831157273888 5.2566620721285968 0.75372261545971198 -1.0690731866144658 -0.43133806159032084 
284 1 16.41468085433042 7.5729029855748911 4.623711822756885 -1.0715439421888764 0.76499820157913923 0.81443704053050425 
285 1 15.517730500742127 8.8394634847164433 5.0957520086425978 0.20890124547043809 0.59402758454278459 -0.33434933303074865 
286 2 18.24353157508498 12.370104876712334 3.7802514904185096 0.68073839876468634 -2.1863659738671242 1.958675037540337 
287 1 18.799231794165955 11.835004665391386 3.1185912295491995 -0.68790026010125216 0.56542040083946887 1.3215899713981194 
288 1 18.288031593124842 11.806404654489318 4.675951843300882 -0.051223925064691013 1.5388712182362225 -2.8367526111040879 
289 2 15.180040367804997 9.6734638134650321 11.419404501765388 -0.049227800718221026 1.1406951259410372 -1.2093695195535963 
290 1 15.719510580078287 9.762083848449608 10.590604175191421 -0.35240921674409903 0.11159660041496815 0.33804338838449233 
291 1 15.389240450366295 8.7946534672592929 11.670604600954706 0.29658798556376914 -1.3234544014043021 0.68685095923361872 
292 2 19.085411907047547 9.4454137238144984 4.6364818276698427 0.86156824601951609 0.13053486729286876 1.4099877030652708 
293 1 20.076632297922167 9.4931337423054227 4.481741766703057 -1.0657938265250009 -0.15097451951744734 0.058222590106969896 
294 1 19.068381900719423 9.2519636472902658 5.6279522187914841 0.13490085795550705 0.074742274346000379 -1.3426459814783307 
295 2 21.115802707811312 12.181204802355486 11.285004448979073 1.0903134544478303 0.15366216853687306 -0.49937810379482417 
296 1 22.055913078390613 12.318904856603263 11.023804345729912 -0.45675437379696426 -0.26361060601100439 0.27109825467213144 
297 1 20.997672661279523 0.40233315865377162 11.987004725619373 -0.24662626525240858 0.35270348957612829 0.42259209280900661 
298 2 24.287403957839814 1.2341904863982955 3.6429614363218414 0.69252209562738698 0.69859701618547165 -2.3932974011141774 
299 1 23.973103834297593 0.95618437700424097 4.4926917713840746 -0.6484478696162751 -0.98510307340214132 1.1358968272923411 
300 1 23.849603785296203 0.76519230162598373 2.8894911390728506 0.081034987245229229 0.37582837452375861 1.3333363309380328 
301 2 23.683403719821829 10.947804315615919 8.027933164855904 -1.3212592138306776 -0.69803593035857092 0.30813757671169079 
302 1 23.433803621260921 10.030703954394728 8.3552532940872783 0.36955978873862722 1.0729878694312904 -0.39435347654348724 
303 1 24.653104101900389 10.918604304544345 7.9084831175278616 0.46878585550541541 -0.24242787864135587 -0.088885486437611863 
304 2 21.367152806513825 8.947213527151586 1.4728605805307846 -0.16118924336436602 0.15351973230326935 1.2190639846265778 
305 1 21.632062911375556 8.9427735255797351 0.55692921938937212 0.16283473979174595 -0.10091570799599625 -1.5809918455760175 
306 1 22.095603094154363 8.5127033556785516 1.9622507736111483 0.25890300320097204 -0.20501322545519088 0.35179037061229029 
307 2 12.985678502334157 1.5072605943061563 6.2568824666041634 -0.55894845632349155 0.062664376028539082 -0.31304961094467737 
308 1 13.447009684598264 1.5539806128673561 7.1144828044894854 0.28219553941571179 -0.22086775517325513 0.43994049306252825 
309 1 13.557249728054364 2.0707608161198858 5.698682246640522 -0.13020220768134527 0.15586698037638463 0.00089002762588647963 
310 2 15.13639035018166 7.7536630566090325 1.9447307666506983 -1.554582895599177 0.3075747264909342 0.33049599819483227 
311 1 15.940640667526905 7.5070929595391434 1.4881705868316089 0.49330150523795901 0.47835012445346081 -0.03636062025037845 
312 1 15.09065033235594 8.7295134414833839 2.1160908343236748 0.84223341716696942 -0.99346116246916771 -0.42140297301214286 
313 2 20.648822523390379 1.406090554541334 5.5510521884232311 0.97931568191851304 -0.46197700509905737 -0.38313918988100781 
314 1 19.98473226172873 1.3258305224829998 6.2328124570877028 -0.56545462677109515 0.19426117155760736 0.52471656680671008 
315 1 20.470222453178131 2.1819308599445559 5.0072219740009558 -0.12920880312265076 0.31704051164687241 -0.23456537340114592 
316 2 16.215470775967262 6.0778623958499187 11.343904472145436 0.53829131587356316 0.10805862369602671 0.10652665274122003 
317 1 16.922701054896493 6.7885926761207207 11.247704434031638 -0.5550237920450346 -0.49573230403820862 0.12333566533221013 
318 1 15.399040454016856 6.4187025302061329 10.911804301741313 0.010431219631144108 -0.26608425977385697 0.058411457175150977 
319 2 23.551303668038074 4.5683618007698268 3.6025214203462097 0.38414797167039455 -0.0003530365998190739 0.018963401976567047 
320 1 24.237103937984998 5.2815420820855623 3.7030314597129048 -0.10715124993349394 -0.66900131722199974 0.20771378630979398 
321 1 24.042303861608556 3.7131714639534175 3.5458113975868737 -0.22995593989320093 0.59771152605745481 -0.086608920414393442 
322 2 23.634403700510674 8.2054132346811848 2.9292411545360437 0.83506822702936467 0.75330887318019424 -0.65498402473266204 
323 1 24.380303994492152 8.8596634927162476 2.5992510246562035 -1.0441353477451307 -1.0476496976086425 0.92073017291987269 
324 1 24.065703870336002 7.4352029313271153 3.3689113282076777 0.32738657468984378 0.615278765338098 -0.33264362832755812 
325 2 20.910532626466114 0.82399932507299523 8.4979333498477914 -0.15132444164353082 0.27368722393768929 1.3212601294008108 
326 1 20.168632334320247 1.4236505614778057 8.6362434046559606 -0.61492488348994379 0.4489375771328239 -1.005879378701648 
327 1 21.068352688761649 0.77390030524321551 9.4716737337379833 0.59674252047705245 -0.71810164246399588 -0.2664366523770445 
328 2 13.146514566208481 7.2927228749175361 7.4705629450561899 -0.61517528951314637 0.25715582910752816 -1.6100227351585659 
329 1 24.653904102479181 7.3941229146767791 7.0126527643265346 1.5746897919640923 -0.10287415437561981 1.0525143871678664 
330 1 13.827549834579937 7.5248429664940142 6.7899226767786871 -0.75734985821958312 -0.19758301030229997 0.68684638221450645 
331 2 18.113641523960847 11.070204363953758 10.706404220606341 -0.14598933320925622 -0.084807101341789259 0.27565664517828059 
332 1 18.004881481205089 11.666004598949588 11.482604526852114 0.13694972953855139 -0.72683172063503609 -0.42426645912869565 
333 1 17.855901422606411 10.163204006467883 10.998304335880018 0.23633461818633661 0.6688653202308279 -0.11805395832168511 
334 2 20.310802390254185 7.313082882821428 9.7889938589095102 -0.85384242261974186 -1.0658950851017683 -2.5428765400194004 
335 1 20.447372444253283 6.7224926503911089 10.536504153910284 0.041899881218911909 -0.76773183307437209 0.86279679043612345 
336 1 20.095862305577381 6.7054126431668992 8.9883335432487677 0.40582775663914822 0.88375870689534741 1.8286036081130923 
337 2 20.587492499431683 11.474104523216033 2.8631611285298542 1.4260315083215114 -1.6426176357773263 -0.31667020322443851 
338 1 21.079002693357914 11.519004541016113 3.7052114607873969 -0.2916382941283357 0.46875661620122316 0.039684874833084069 
339 1 20.995112660168232 10.598804178213573 2.5019509864080365 -0.99036699493004599 1.3347571831622282 0.026908523996487833 
340 2 13.929239874562221 10.973804325959851 7.7483730546206555 -0.015150582935355364 -1.7283700912856594 -1.2825801920878825 
341 1 14.147149960501421 10.943304314344623 6.763672666187734 0.15608426528241348 0.17056661199234752 0.90080946699802422 
342 1 14.18401997504515 11.80740465494822 8.1137331986204586 0.22145104320709152 1.6821563362756706 0.31881937785304149 
343 2 23.192903526745386 2.7222510731635499 7.6400330118777164 0.075504144632494163 -0.68729266895959573 -1.2245199460081513 
344 1 23.99990384469114 2.3631709317493139 7.1720428271361696 -0.31745285752160246 0.20421672163816654 0.10681460101231388 
345 1 22.506503256099776 2.4292809578698145 6.9902727557814153 0.22711377351440384 0.30625577752735372 0.92879735311292178 
346 2 14.490110095703507 1.6255006409042994 0.000299719091655248 0.0099530283405951936 0.70888725116627915 0.25798309193898333 
347 1 14.733020191527737 2.4729909746634182 0.41754716480047227 0.053296151103172575 -0.43779743350488742 -0.063917930565098841 
348 1 13.525919715746031 1.6985306697558959 0.056515422074285927 -0.48079876088228912 -0.17735682293454363 -0.05752343270164554 
349 2 23.257903552340629 5.4301421406474439 0.71507328207278165 0.6157563460119142 0.74538828262447598 0.39714617294312876 
350 1 23.428003618916797 5.3565521116023644 1.6739606597453953 -0.65841115135438288 -0.60064005855000902 0.33166503083660326 
351 1 23.93510381897601 6.1664724309727816 0.5653902226651798 -0.41729498435991697 -0.27537145199212271 -0.66587000341532909 
352 2 14.82022022604059 3.182021254630345 4.9864719656693781 -0.48669309201937905 -0.16624996642436379 -1.6330597440133718 
353 1 14.314830026676141 3.4126213455304586 4.1355116301538226 0.82759914355161057 -0.21174800076402422 1.3273462898649591 
354 1 15.484120487683837 2.5037509869165544 4.6764418434040333 -0.24767001164947761 0.62455039498066456 -0.2082219737509719 
355 2 13.175364577357568 6.6238626114849755 3.8923715343351719 -0.67101733965823041 -0.23604103664731135 1.6133796145838804 
356 1 13.66546977034006 6.6832026349167561 3.0827912155547059 1.1246059409656812 0.13096398747889648 -0.80095516073014239 
357 1 13.749159803649631 6.9164727264653365 4.6485718324612497 -0.027479254344338712 -0.1965518831311949 -0.95065096945390548 
358 2 17.997741478341286 7.1014027996300628 3.9435015548830892 0.26991733012962943 -0.541149329548817 0.51726627274354797 
359 1 18.343371614721015 6.6629526265500409 3.1271612327464373 -0.49494672853442362 0.33675536104203868 -0.1500077218947215 
360 1 18.620321724007241 7.8297230864224696 4.1982316549991072 -0.30505470955663028 0.19969166729035623 -0.30295657349684285 
361 2 16.537270902686661 10.237404036073357 2.4244409560085671 -0.77636555379415118 -0.60095727675422805 1.7604030106832032 
362 1 16.097320729182876 10.987904331530775 2.0140607937514381 0.22264798159525256 0.80311106975045687 -1.5148407356367939 
363 1 16.150190750010687 10.372104088944427 3.3200413086862963 0.86826570209323339 -0.57918795836653791 0.044325810040010634 
364 2 14.369470047898162 12.386204882671885 3.1990812610727763 -0.79030182095664248 0.55973833055580369 -0.34143564987042541 
365 1 15.097270335002284 0.58561123106250834 2.9333811565523189 -0.075616546027729048 -0.12852603370854276 0.11205937297175059 
366 1 13.538259720255281 0.53471921061005123 3.1264312322579766 0.59393751757474655 -0.54037500898246116 0.57557128648731648 
367 2 19.10724191579007 5.3322221019771732 8.3199832801719591 0.85146557660018884 -0.28529501526343815 -0.71757336130903782 
368 1 18.229861569917762 5.6848022412023083 8.1110631974428156 -0.12914132748625659 0.11102325902969558 -0.4200347681260842 
369 1 19.556272092846847 5.0769620012528032 7.4620929415344177 -0.85649760921497442 0.20749060575343056 0.82483181184239007 
370 2 18.664661741613841 8.5654333768548785 1.2902905085972374 1.3630831705849624 -0.90645236418030983 -0.75461801850851418 
371 1 18.288981593216835 9.1341436007049417 1.9729407776542569 0.029934303594730597 0.31751903883236249 0.42795528306991049 
372 1 19.680622141735583 8.5176433577444453 1.3992405513713932 -1.7066953010816295 0.56296630467549535 0.15783394016341248 
373 2 16.498380887501703 3.1650912479776898 9.5824037778264124 0.1337300768462692 -0.22913531143174065 0.60153390250287331 
374 1 16.586900922281636 3.4074913434461696 10.533204152448825 -0.22998337111942735 0.011346726651046146 -0.78983992342285769 
375 1 16.049160710426531 3.8943415351386661 9.1173235941186395 -0.042623029756627108 0.18325770120591434 -0.0076408918081293355 
376 2 18.660401739669496 5.5372921829130819 1.8283107208136733 0.64253297389200414 -0.94311740015810686 1.3201625700082844 
377 1 19.313091997052176 5.9261023360072409 1.2104304773574766 -0.18343428871494882 -0.23582071059720044 -0.11489348679875488 
378 1 19.199121952260082 5.0069119740544918 2.4937309831332848 -0.39943094594782763 0.62343284293383927 -1.1070703093765977 
379 2 13.653029765626165 6.6533726230321895 10.195404019445339 -0.72410869841890535 -1.5615951297997208 4.5238238834834217 
380 1 13.238359602368739 5.782382279811805 10.038903957416879 0.12663163176063069 -0.21556726096741025 -0.32379883944086829 
381 1 13.874679853292244 7.0325527722415861 9.4123637104205145 0.5206518778050111 1.7973154846450383 -4.1347112008487388 
382 2 14.146579960446227 1.2765105033636661 8.6733834191701309 -0.43333125513567994 -0.668775187027421 -0.35161872043701287 
383 1 13.292076623178307 1.4490105711470334 9.1501236072656038 1.1126944224725055 0.36183855537840354 0.30303138366740284 
384 1 14.922700266210779 1.7664406963849144 8.9791935399963361 -0.44157183739369948 0.34967540651001788 0.67436031217207559 
385 2 27.804689727789771 11.021604344931998 5.3254020994507201 -0.18851284229804763 -1.2676154297281708 0.38454238160409981 
386 1 27.317889535935006 11.645604591069674 4.7741418819415973 -0.16588184840136611 0.79937902338794053 -0.72227693498356293 
387 1 28.568660029063473 11.412304498877607 5.8007522866596037 0.026867026373282487 0.28928585256426625 -0.21161829161290807 
388 2 36.127803009128215 11.194004413039899 0.086768434406444148 0.24385439542094373 -0.52326564158567146 -0.62094388901020081 
389 1 35.240802659232855 10.926604307686388 0.34829313707207921 -0.18833589919351232 0.081357446110503398 0.13108606481452473 
390 1 36.283303070168593 10.599104178298328 11.709404616325905 0.040707753947322858 0.29595789367529302 0.34579506929675374 
391 2 35.039702580018243 7.995033152033475 7.5217829654178621 -1.952959167546112 0.10243373635275999 -1.8710282967325922 
392 1 34.613572412253227 7.3029528789718032 8.0675031801624097 0.17212279713187131 0.50236006328798199 -0.11437467273884967 
393 1 34.299162288115475 8.1872532275752068 6.7791426723926458 2.0131704607051644 -0.52571825493456403 1.8714566028141233 
394 2 30.631280842389828 4.2497216753312221 5.1475620293120645 -0.024833542125280481 2.0720127144664064 -0.13506085102433563 
395 1 30.595400827914112 5.2613620743383569 4.9832719644125616 -0.32626001330409499 -1.3950719463701493 0.38645535183268082 
396 1 31.246491084668378 4.0216515854280868 4.4326917475541663 0.32091623999603031 -0.53092432816206792 -0.15143251735899879 
397 2 28.635940055408675 4.3111216993802515 1.0677604209294989 1.6941126220776215 0.48923057798476371 -0.0012808754862538557 
398 1 29.404780358657931 4.6181918207740882 1.6758806607111565 -1.1327960724542774 -0.14017552241094755 -1.189880216779831 
399 1 28.710100085038128 4.9442919494138504 0.26631810518189203 -0.087285757485078608 -0.144899931486281 0.51530062500591622 
400 2 28.74660009940677 9.8946939005891146 8.7282534409157506 -1.0235357321744873 1.1506707902914513 -0.48333464037479956 
401 1 29.179930270264215 10.74490423589279 8.4890633465657999 0.25065651846836495 -0.72420903245723012 0.45546998517989806 
402 1 27.817499732678751 10.195004019155942 8.4850533448684793 0.49104413401959496 -0.87801213523293353 0.082116418630161128 
403 2 33.173521844201943 3.7590814820741132 3.4283113513389023 0.39308214350924631 -1.1569620533901477 -1.0235356030560152 
404 1 34.040992186357329 4.0763416070170182 3.8229515068914997 -0.52025910253250818 -0.54102302399444002 -1.023835930337178 
405 1 33.342721911053026 3.0391911982982793 2.6565710474467563 -0.12639463702870538 1.6259774056831622 1.933854763418233 
406 2 25.551643839763937 3.902101538424577 9.6309337967578426 -0.79338962098454191 0.18848053515278668 2.516529391355776 
407 1 26.120479063737509 3.9857315715055273 8.906383511277447 2.6303297870183191 0.49702026487789763 -2.3186813830585953 
408 1 37.197303430866789 3.6633914443160664 9.142853604082843 -1.9194486403629032 -0.402707264067659 -0.31180586586955167 
409 2 27.357269551752292 4.4280017457352949 7.4511729374968896 0.97811231429689427 1.8433858037843425 0.32867058406904892 
410 1 27.73362969974167 5.3669221158372968 7.400512917328701 -0.63891792816552107 -1.4600615471455614 0.10956628259921238 
411 1 27.560229631704043 4.0410415929873871 6.5771325930620641 -0.17658395167056276 -0.15014429249183961 -0.21618256970221422 
412 2 35.237002657806535 11.807704655032975 5.5567121905866941 0.24518578059241142 -0.5946487431301315 -0.88028674125462636 
413 1 34.450452347578427 12.352204869715088 5.6265222179288745 -0.63056179319439032 0.7002566580395887 0.24513880426187415 
414 1 35.391602718592651 11.446104512483473 6.4520525436848697 0.43536494579824508 -0.02813051045363919 0.78651731544769621 
415 2 28.478739993535243 11.934904705256042 0.44243817423489507 -0.77633759272994129 1.0612666404184705 0.18405919735148824 
416 1 28.109759848265803 11.210204419204091 12.304504850947586 -0.008636410765383018 0.12039184433169026 0.081450451043698469 
417 1 27.764469711946848 0.24166009511830802 0.49262919416827827 0.65681916327492373 -0.96069759939702715 -0.37873615972848496 
418 2 30.337870726301496 8.183633226305572 11.082804369100916 -0.39348897692215357 0.051963351672880131 -1.3712886462454499 
419 1 31.091901023743972 7.923083123592825 10.496004137706032 0.043004798157535024 0.11444997879230885 0.40849025091243757 
420 1 30.694070866796267 8.4768733415697497 11.92740470207886 0.48526050843792029 -0.067803689829853575 1.2885245504958707 
421 2 32.025021391501845 3.1664412483590785 10.594704176702498 -0.72741794226180245 0.14743510448593539 -0.14616383107592543 
422 1 31.385451139483791 3.464581365713125 9.9003339030291553 0.68424104452977874 -0.041251916860493579 0.4252485401088093 
423 1 31.45012116487997 2.8479011225959403 11.337604469307268 0.10172721701245691 -0.13896832330431561 -0.43100636970653827 
424 2 30.10587063518226 1.9218107576355168 12.396404887141021 0.51218713430905838 2.7639736202985268 0.78943490346925871 
425 1 29.525280406282612 1.1863804675644385 12.334604862802594 -1.1124302717752319 -1.5588307087556026 -0.024588071405834522 
426 1 29.525840406476096 2.6821710575012929 0.35009513787044594 0.81544877624166912 -0.88389271588715601 -0.42508475654293959 
427 2 29.881930546904513 11.869504679371399 6.7558526632023783 0.18841924439692254 0.45538909148040219 0.40396534265632061 
428 1 30.55827081326165 11.224804425269056 7.0185827669896161 0.32209202405103299 0.10412905043339626 -0.058998077665381669 
429 1 30.100990633344992 0.31234412318013349 7.2043328399273818 0.067624802711290677 -0.21089212083698794 -0.42402338464302791 
430 2 25.383559773249299 10.061203966539134 2.1976808665107979 0.16353668734552551 0.3552978165740483 -0.53503639751601861 
431 1 25.850118957512489 10.777204248545713 2.7246210742564401 -0.52993668506038549 -0.25527094539868628 -0.93723941213671169 
432 1 24.963882607741247 10.412804105028789 1.352370533296994 0.48634490895836452 0.05865223401113806 1.1964287261323783 
433 2 36.224503047206873 1.0552104161492506 9.8494538827282572 -1.121917378379967 1.7460213514715492 -0.82926067950958393 
434 1 36.407503119544131 0.20124107954020051 9.4812837378993233 0.053699051226824099 -1.3820246444832367 -0.48861292351810648 
435 1 35.708302843871252 1.5012705919436298 9.0729135769508886 0.7746056134772018 -0.39280831223706375 1.0215752838100092 
436 2 34.305912290551596 9.2332736401051143 4.6154218193918002 -0.6486000087449898 0.69931902870635243 1.1034155802325414 
437 1 35.101802604441424 8.8655434950124192 4.1935616534328366 0.3548957028169229 -0.1633182924923485 -0.58118764315903193 
438 1 34.601532407299558 10.065403968254852 5.065601996949856 0.14665558888661975 -0.11528604275117267 -0.20761864486797382 
439 2 29.101890239256392 6.9918027563194913 7.6642530214365534 -0.28351597014165364 1.4665163817039164 1.2655777885600832 
440 1 28.840830136187897 7.6371030105913409 6.9413027365845679 0.14933815139248982 -0.78511793658333129 0.094816955413177709 
441 1 29.004660201098559 7.5601629802470676 8.4970733495695541 0.14492743964152363 -0.97060307281201652 -1.3857129986235737 
442 2 32.218451467773477 8.2698932600589661 7.1154528048340762 -0.56590584938640243 0.72355335367212836 1.0379964974269595 
443 1 31.512801189749233 7.8822031073517751 7.6736230252125841 0.17900486880567737 -0.01064446794516964 -0.62833547799662059 
444 1 32.450001559294762 9.0714235763888329 7.6889430313751195 0.074992310016561717 -0.51249999918692801 -0.41725475308997773 
445 2 24.974839612378378 7.3286328889783841 0.20004107867201124 -0.93433891587276408 -0.28260675939835955 -1.447970849912092 
446 1 25.63219287137121 7.5729629852743354 0.80137031589660279 1.4984250373361712 0.83287851865111617 2.2549866172695729 
447 1 25.550385838956974 7.1738628278972874 11.83790466656345 -0.35431107221538471 -0.33539907264736235 -0.88932457765629713 
448 2 30.615370835919496 2.1989308666875433 7.5243429665291517 -0.49185172834168966 0.074651505726095191 0.5058863451535075 
449 1 30.365190737441683 2.8259111139493283 6.818332688191532 0.23078967786317789 -0.06598888040638444 -0.05521096913852587 
450 1 30.064950618965188 2.4647609715269554 8.3083432755076814 0.27614808121861223 -0.11467043995947834 -0.4499517530141503 
451 2 32.80098169736231 10.450704120145732 8.7458134478522229 -0.72295882912887011 -1.2522233982218516 -0.21507562645132666 
452 1 32.004711383435684 10.532404151870031 9.3210736747874723 0.49376836609371277 0.68919652636149797 -0.061041615864952735 
453 1 33.168401842508544 11.314604460340043 8.5081733542929463 -0.31843088752157744 0.64743720355888978 0.18231963302722504 
454 2 36.915903319617819 9.4935637427091297 10.311904065234408 0.91173936411740142 0.25903817898354642 0.71486304649362409 
455 1 36.521303164041242 8.6900434258523447 10.706504220810984 0.37854328578832919 0.349743583120674 -0.1287562468381227 
456 1 25.423751789267762 9.6084237878937664 10.653504199664216 -1.0829993410110554 -0.48486580611416646 -0.39905993657659239 
457 2 26.063159041476133 4.0215515852234436 1.9215007576890526 -0.030672789012456628 -0.098620766311915797 0.20760340256032997 
458 1 26.980819402890805 4.0991516159658454 1.6157406367005833 0.47359645107352061 0.37601147671249269 0.2392180131556669 
459 1 25.563834844375734 4.4118217392945223 1.205210474930255 -0.50137234647993334 -0.10125585916681609 -0.11166971327406017 
460 2 32.91797174378371 5.7001322472265539 12.174604799432565 -0.24814609504765717 -0.040975128004028444 -0.35736467419803553 
461 1 32.858771720532594 4.8491519114583985 11.682504605727713 -0.053819516123263127 0.062023456060909574 0.31351289776821278 
462 1 33.790132087228791 5.7188322542734165 0.1929180761552097 0.37936357588740816 -0.14319017994766828 -0.054278291006128299 
463 2 28.903930161069979 1.7749406994918195 3.2816312937427803 0.31986591195070924 -0.9236099588293496 0.47751805682665538 
464 1 29.404210358602736 2.3304309188309724 2.6601210486260598 -0.0061310727289381473 -0.42369767700739769 0.2064524654715752 
465 1 29.526650406916598 0.99099039088020047 3.606531421514354 -0.27409350336931915 1.2303233376370173 -0.97805955124228172 
466 2 34.046872188653502 9.0510135681180319 11.055404358537862 0.86178698866425385 -0.67093913428161356 0.68441207472439702 
467 1 33.62308202186707 9.8825238958456634 10.903604298719163 -0.37935066145648721 1.1017598060714313 -0.274897088968868 
468 1 33.701392052316152 8.4886833465290028 10.316104066950128 0.14209819902993112 0.3885661070289021 0.29446819747310399 
469 2 36.112503003218279 2.7753610938474949 0.25869310188120209 -0.58672151888194202 0.63203933895052966 -0.23235750415135908 
470 1 35.867502906662487 2.4666809724927163 11.790004647915836 0.14010781329514085 -0.3274182457047643 -0.24237086035867894 
471 1 35.725902850783747 3.7006114587822809 0.25705710132729159 0.80335349830480962 -0.63684210623457516 0.39865547770018855 
472 2 33.035801790230742 1.6324206436353956 1.5682106182280566 -1.5001211955592553 -0.51153411439038043 -0.095720415944499621 
473 1 32.101381421929212 1.6865006646639324 1.2142504785072221 0.89020210186979132 0.27020758371782327 0.23974355479668635 
474 1 32.918191743916417 0.85630033734166577 2.1817008599501357 0.50996769790842145 0.094823584259239146 -0.27928219752142625 
475 2 28.082449837516503 7.9039831157273888 5.2566620721285968 0.75372261545970631 -1.0690731866144714 -0.4313380615903164 
476 1 28.831780132749216 7.5729029855748911 4.623711822756885 -1.0715439421888773 0.76499820157914422 0.81443704053050303 
477 1 27.934829779160921 8.8394634847164433 5.0957520086425978 0.20890124547044384 0.59402758454278581 -0.33434933303075098 
478 2 30.660630853503775 12.370104876712334 3.7802514904185096 0.68073839876468867 -2.1863659738671259 1.9586750375403361 
479 1 31.216331072584751 11.835004665391386 3.1185912295491995 -0.6879002601012546 0.56542040083946798 1.3215899713981194 
480 1 30.705130871543638 11.806404654489318 4.675951843300882 -0.05122392506469288 1.5388712182362223 -2.8367526111040875 
481 2 27.597139646223795 9.6734638134650321 11.419404501765388 -0.049227800718224635 1.1406951259410434 -1.2093695195535874 
482 1 28.136609858497085 9.762083848449608 10.590604175191421 -0.35240921674409764 0.11159660041496514 0.33804338838449316 
483 1 27.80633972878509 8.7946534672592929 11.670604600954706 0.29658798556377081 -1.3234544014043019 0.68685095923361739 
484 2 31.502511185466343 9.4454137238144984 4.6364818276698427 0.86156824601951787 0.13053486729286723 1.4099877030652741 
485 1 32.493731576340963 9.4931337423054227 4.481741766703057 -1.0657938265250007 -0.15097451951744761 0.058222590106972137 
486 1 31.485481179138219 9.2519636472902658 5.6279522187914841 0.13490085795550766 0.074742274346000864 -1.3426459814783309 
487 2 33.532901986230108 12.181204802355486 11.285004448979073 1.0903134544476869 0.15366216853685311 -0.49937810379478531 
488 1 34.473012356809406 12.318904856603263 11.023804345729912 -0.45675437379681016 -0.26361060601098946 0.27109825467209542 
489 1 33.414771939698319 0.40233315865377162 11.987004725619373 -0.24662626525241085 0.3527034895761329 0.42259209280901205 
490 2 36.70450323625861 1.2341904863982955 3.6429614363218414 0.69252209562740652 0.69859701618550329 -2.3932974011142294 
491 1 36.390203112716392 0.95618437700424097 4.4926917713840746 -0.64844786961629386 -0.98510307340216441 1.1358968272923931 
492 1 36.266703063714999 0.76519230162598373 2.8894911390728506 0.081034987245226967 0.37582837452375417 1.3333363309380373 
493 2 36.100502998240628 10.947804315615919 8.027933164855904 -1.3212592138308723 -0.69803593035860501 0.30813757671172493 
494 1 35.850902899679717 10.030703954394728 8.3552532940872783 0.36955978873865375 1.0729878694313335 -0.39435347654350211 
495 1 37.070203380319185 10.918604304544345 7.9084831175278616 0.46878585550556867 -0.24242787864136464 -0.088885486437627101 
496 2 33.784252084932618 8.947213527151586 1.4728605805307846 -0.1611892433642472 0.15351973230322025 1.2190639846265783 
497 1 34.049162189794352 8.9427735255797351 0.55692921938937212 0.16283473979172447 -0.10091570799599152 -1.5809918455759706 
498 1 34.512702372573159 8.5127033556785516 1.9622507736111483 0.25890300320089343 -0.20501322545514683 0.35179037061224977 
499 2 25.402777780752952 1.5072605943061563 6.2568824666041634 -0.55894845632351642 0.062664376028519181 -0.31304961094465616 
500 1 25.86410896301706 1.5539806128673561 7.1144828044894854 0.28219553941570907 -0.22086775517325277 0.43994049306252414 
501 1 25.974349006473158 2.0707608161198858 5.698682246640522 -0.13020220768132032 0.15586698037640501 0.00089002762586920872 
502 2 27.553489628600456 7.7536630566090325 1.9447307666506983 -1.5545828955992358 0.30757472649095341 0.33049599819486414 
503 1 28.357739945945699 7.5070929595391434 1.4881705868316089 0.49330150523802146 0.47835012445343661 -0.03636062025041549 
504 1 27.507749610774738 8.7295134414833839 2.1160908343236748 0.84223341716696432 -0.9934611624691646 -0.42140297301214119 
505 2 33.065921801809175 1.406090554541334 5.5510521884232311 0.97931568191851459 -0.4619770050990572 -0.38313918988100498 
506 1 32.401831540147526 1.3258305224829998 6.2328124570877028 -0.56545462677109637 0.19426117155760775 0.52471656680670808 
507 1 32.887321731596927 2.1819308599445559 5.0072219740009558 -0.12920880312265165 0.31704051164687214 -0.23456537340114655 
508 2 28.632570054386058 6.0778623958499187 11.343904472145436 0.53829131587356205 0.10805862369602186 0.10652665274122097 
509 1 29.339800333315289 6.7885926761207207 11.247704434031638 -0.55502379204503371 -0.49573230403820701 0.12333566533221063 
510 1 27.816139732435651 6.4187025302061329 10.911804301741313 0.010431219631145093 -0.26608425977385564 0.058411457175151407 
511 2 35.96840294645687 4.5683618007698268 3.6025214203462097 0.38414797167034842 -0.00035303659974794677 0.018963401976573604 
512 1 36.654203216403793 5.2815420820855623 3.7030314597129048 -0.10715124993349201 -0.66900131722201017 0.20771378630979173 
513 1 36.459403140027348 3.7131714639534175 3.5458113975868737 -0.22995593989315199 0.59771152605739464 -0.086608920414398938 
514 2 36.05150297892947 8.2054132346811848 2.9292411545360437 0.83506822702936312 0.75330887318019124 -0.65498402473266459 
515 1 36.797403272910948 8.8596634927162476 2.5992510246562035 -1.0441353477451276 -1.0476496976086456 0.92073017291987447 
516 1 36.482803148754797 7.4352029313271153 3.3689113282076777 0.32738657468984533 0.61527876533810044 -0.33264362832755795 
517 2 33.32763190488491 0.82399932507299523 8.4979333498477914 -0.15132444164363718 0.27368722393777856 1.3212601294008246 
518 1 32.585731612739039 1.4236505614778057 8.6362434046559606 -0.61492488348983632 0.44893757713273508 -1.0058793787016604 
519 1 33.485451967180445 0.77390030524321551 9.4716737337379833 0.5967425204770489 -0.71810164246398567 -0.26643665237704089 
520 2 25.563613844627277 7.2927228749175361 7.4705629450561899 -0.61517528951319933 0.25715582910753054 -1.610022735158579 
521 1 37.071003380897977 7.3941229146767791 7.0126527643265346 1.5746897919641007 -0.10287415437561798 1.0525143871678635 
522 1 26.244649112998733 7.5248429664940142 6.7899226767786871 -0.75734985821958678 -0.19758301030229869 0.686846382214502 
523 2 30.530740802379643 11.070204363953758 10.706404220606341 -0.14598933320925944 -0.084807101341789537 0.27565664517827926 
524 1 30.421980759623885 11.666004598949588 11.482604526852114 0.13694972953855009 -0.72683172063503865 -0.42426645912869665 
525 1 30.273000701025207 10.163204006467883 10.998304335880018 0.23633461818633805 0.66886532023082779 -0.11805395832168526 
526 2 32.727901668672978 7.313082882821428 9.7889938589095102 -0.85384242261972987 -1.0658950851017703 -2.5428765400193876 
527 1 32.864471722672079 6.7224926503911089 10.536504153910284 0.04189988121890708 -0.7677318330743641 0.86279679043610991 
528 1 32.512961583996173 6.7054126431668992 8.9883335432487677 0.40582775663915288 0.88375870689534719 1.828603608113097 
529 2 33.004591777850479 11.474104523216033 2.8631611285298542 1.4260315083215147 -1.6426176357773266 -0.31667020322443901 
530 1 33.49610197177671 11.519004541016113 3.7052114607873969 -0.29163829412833542 0.46875661620122089 0.039684874833083507 
531 1 33.412211938587028 10.598804178213573 2.5019509864080365 -0.99036699493004909 1.3347571831622305 0.026908523996487823 
532 2 26.346339152981017 10.973804325959851 7.7483730546206555 -0.015150582935338268 -1.7283700912856648 -1.282580192087895 
533 1 26.564249238920219 10.943304314344623 6.763672666187734 0.15608426528240524 0.17056661199234943 0.90080946699803632 
534 1 26.601119253463946 11.80740465494822 8.1137331986204586 0.22145104320708964 1.6821563362756686 0.31881937785303982 
535 2 35.610002805164186 2.7222510731635499 7.6400330118777164 0.075504144632301928 -0.68729266895958752 -1.2245199460081624 
536 1 36.417003123109936 2.3631709317493139 7.1720428271361696 -0.31745285752149788 0.20421672163812343 0.10681460101225704 
537 1 34.923602534518572 2.4292809578698145 6.9902727557814153 0.22711377351448242 0.3062557775273857 0.92879735311298883 
538 2 26.907209374122303 1.6255006409042994 0.000299719091655248 0.0099530283405864228 0.70888725116627926 0.25798309193898572 
539 1 27.150119469946532 2.4729909746634182 0.41754716480047227 0.053296151103190012 -0.43779743350487615 -0.063917930565093192 
540 1 25.943018994164827 1.6985306697558959 0.056515422074285927 -0.48079876088229451 -0.17735682293455474 -0.057523432701650293 
541 2 35.675002830759425 5.4301421406474439 0.71507328207278165 0.61575634601191098 0.74538828262447177 0.39714617294312804 
542 1 35.845102897335593 5.3565521116023644 1.6739606597453953 -0.658411151354383 -0.60064005855001024 0.33166503083660365 
543 1 36.352203097394806 6.1664724309727816 0.5653902226651798 -0.41729498435991474 -0.27537145199212176 -0.66587000341532954 
544 2 27.237319504459386 3.182021254630345 4.9864719656693781 -0.48669309201940614 -0.16624996642433634 -1.6330597440133656 
545 1 26.731929305094937 3.4126213455304586 4.1355116301538226 0.82759914355160824 -0.21174800076402053 1.3273462898649595 
546 1 27.901219766102631 2.5037509869165544 4.6764418434040333 -0.24767001164944735 0.6245503949806378 -0.20822197375097698 
547 2 25.592463855776362 6.6238626114849755 3.8923715343351719 -0.6710173396581921 -0.23604103664730533 1.6133796145838462 
548 1 26.082569048758856 6.6832026349167561 3.0827912155547059 1.1246059409656552 0.1309639874788906 -0.80095516073010753 
549 1 26.166259082068425 6.9164727264653365 4.6485718324612497 -0.027479254344340814 -0.1965518831311954 -0.95065096945390215 
550 2 30.414840756760082 7.1014027996300628 3.9435015548830892 0.2699173301296266 -0.54114932954881478 0.51726627274354753 
551 1 30.760470893139811 6.6629526265500409 3.1271612327464373 -0.49494672853442456 0.33675536104203785 -0.15000772189472156 
552 1 31.037421002426036 7.8297230864224696 4.1982316549991072 -0.30505470955663083 0.19969166729035479 -0.3029565734968428 
553 2 28.954370181105457 10.237404036073357 2.4244409560085671 -0.77636555379415351 -0.60095727675422828 1.7604030106832005 
554 1 28.514420007601672 10.987904331530775 2.0140607937514381 0.22264798159525048 0.80311106975045798 -1.5148407356367932 
555 1 28.567290028429483 10.372104088944427 3.3200413086862963 0.86826570209323217 -0.57918795836653747 0.044325810040012514 
556 2 26.786569326316958 12.386204882671885 3.1990812610727763 -0.79030182095655654 0.55973833055579614 -0.3414356498704304 
557 1 27.514369613421081 0.58561123106250834 2.9333811565523189 -0.07561654602776946 -0.12852603370857696 0.11205937297176601 
558 1 25.955358998674079 0.53471921061005123 3.1264312322579766 0.59393751757469726 -0.54037500898243296 0.57557128648731282 
559 2 31.524341194208866 5.3322221019771732 8.3199832801719591 0.85146557660018429 -0.28529501526344098 -0.71757336130904159 
560 1 30.646960848336558 5.6848022412023083 8.1110631974428156 -0.12914132748625567 0.11102325902969379 -0.42003476812608459 
561 1 31.973371371265642 5.0769620012528032 7.4620929415344177 -0.85649760921497342 0.20749060575343098 0.82483181184238885 
562 2 31.081761020032637 8.5654333768548785 1.2902905085972374 1.3630831705849524 -0.90645236418030828 -0.75461801850851096 
563 1 30.706080871635631 9.1341436007049417 1.9729407776542569 0.02993430359472888 0.31751903883235966 0.42795528306990732 
564 1 32.097721420154379 8.5176433577444453 1.3992405513713932 -1.7066953010816297 0.56296630467549358 0.15783394016341162 
565 2 28.915480165920499 3.1650912479776898 9.5824037778264124 0.13373007684627031 -0.22913531143174129 0.60153390250287075 
566 1 29.004000200700432 3.4074913434461696 10.533204152448825 -0.22998337111942693 0.011346726651046165 -0.78983992342285847 
567 1 28.466259988845326 3.8943415351386661 9.1173235941186395 -0.042623029756628496 0.18325770120591231 -0.0076408918081295654 
568 2 31.077501018088292 5.5372921829130819 1.8283107208136733 0.64253297389200592 -0.94311740015810708 1.3201625700082873 
569 1 31.730191275470972 5.9261023360072409 1.2104304773574766 -0.18343428871494893 -0.23582071059719981 -0.1148934867987557 
570 1 31.616221230678878 5.0069119740544918 2.4937309831332848 -0.3994309459478273 0.62343284293383827 -1.1070703093765986 
571 2 26.070129044044961 6.6533726230321895 10.195404019445339 -0.72410869841890801 -1.5615951297997337 4.5238238834834439 
572 1 25.655458880787535 5.782382279811805 10.038903957416879 0.12663163176063141 -0.2155672609674118 -0.32379883944086507 
573 1 26.291779131711039 7.0325527722415861 9.4123637104205145 0.52065187780501221 1.7973154846450532 -4.1347112008487619 
574 2 26.563679238865021 1.2765105033636661 8.6733834191701309 -0.43333125513557469 -0.66877518702739569 -0.35161872043701337 
575 1 25.709175901597103 1.4490105711470334 9.1501236072656038 1.1126944224724569 0.36183855537841481 0.30303138366742682 
576 1 27.339799544629575 1.7664406963849144 8.9791935399963361 -0.44157183739374978 0.34967540650998541 0.67436031217205483 
577 2 2.9704911709521791 23.438703623350793 5.3254020994507201 -0.18851284229804138 -1.2676154297282249 0.38454238160412046 
578 1 2.4836909790974153 24.06270386948847 4.7741418819415973 -0.16588184840139938 0.79937902338797806 -0.72227693498359913 
579 1 3.7344614722258798 23.829403777296402 5.8007522866596037 0.026867026373307994 0.28928585256427508 -0.21161829161288942 
580 2 11.293604452290623 23.611103691458695 0.086768434406444148 0.2438543954210598 -0.52326564158565259 -0.62094388901026198 
581 1 10.406604102395265 23.343703586105185 0.34829313707207921 -0.18833589919362231 0.081357446110464582 0.13108606481455992 
582 1 11.449104513331001 23.016203456717122 11.709404616325905 0.040707753947316884 0.295957893675307 0.345795069296778 
583 2 10.205504023180653 20.412132430452271 7.5217829654178621 -1.9529591675461342 0.10243373635271744 -1.8710282967325611 
584 1 9.7793738554156366 19.720052157390597 8.0675031801624097 0.1721227971318926 0.50236006328801608 -0.11437467273887217 
585 1 9.4649637312778854 20.604352505994001 6.7791426723926458 2.0131704607051604 -0.52571825493455326 1.8714566028141164 
586 2 5.7970822855522348 16.666820953750019 5.1475620293120645 -0.024833542125247236 2.0720127144663945 -0.13506085102436818 
587 1 5.7612022710765203 17.678461352757154 4.9832719644125616 -0.32626001330410065 -1.3950719463701451 0.38645535183268187 
588 1 6.4122925278307878 16.438750863846884 4.4326917475541663 0.32091623999600188 -0.53092432816206081 -0.15143251735896412 
589 2 3.8017414985710816 16.728220977799047 1.0677604209294989 1.6941126220776663 0.48923057798479647 -0.0012808754862608635 
590 1 4.5705818018203406 17.035291099192882 1.6758806607111565 -1.1327960724543189 -0.14017552241095321 -1.189880216779863 
591 1 3.8759015282005351 17.361391227832648 0.26631810518189203 -0.087285757485076873 -0.14489993148631178 0.51530062500595242 
592 2 3.9124015425691776 22.31179317900791 8.7282534409157506 -1.0235357321745029 1.1506707902914508 -0.48333464037480117 
593 1 4.3457317134266225 23.162003514311586 8.4890633465657999 0.25065651846836728 -0.72420903245722845 0.45546998517989351 
594 1 2.9833011758411585 22.612103297574738 8.4850533448684793 0.49104413401960711 -0.87801213523293553 0.082116418630163279 
595 2 8.3393232873643495 16.176180760492908 3.4283113513389023 0.39308214350940357 -1.15696205339007 -1.0235356030559255 
596 1 9.2067936295197406 16.493440885435813 3.8229515068914997 -0.52025910253267005 -0.54102302399448832 -1.0238359303372486 
597 1 8.5085233542154324 15.456290476717076 2.6565710474467563 -0.12639463702870019 1.6259774056831442 1.9338547634182128 
598 2 0.71744528292634369 16.319200816843374 9.6309337967578426 -0.79338962098447974 0.18848053515280189 2.5165293913557836 
599 1 1.2862805068999164 16.402830849924324 8.906383511277447 2.6303297870183111 0.49702026487789908 -2.3186813830585806 
600 1 12.363104874029196 16.080490722734861 9.142853604082843 -1.9194486403628042 -0.40270726406762647 -0.31180586586949988 
601 2 2.5230709949147001 16.84510102415409 7.4511729374968896 0.97811231429690582 1.8433858037844164 0.32867058406908412 
602 1 2.8994311429040769 17.784021394256094 7.400512917328701 -0.63891792816553894 -1.460061547145624 0.10956628259921565 
603 1 2.7260310748664502 16.458140871406183 6.5771325930620641 -0.17658395167055388 -0.15014429249185068 -0.21618256970224303 
604 2 10.402804100968941 24.224803933451771 5.5567121905866941 0.24518578059245602 -0.59464874313015825 -0.88028674125462036 
605 1 9.616253790740835 24.769304148133884 5.6265222179288745 -0.63056179319441952 0.70025665803960535 0.24513880426188667 
606 1 10.557404161755061 23.863203790902269 6.4520525436848697 0.43536494579823015 -0.028130510453630624 0.786517315447681 
607 2 3.6445414366976498 24.352003983674837 0.44243817423489507 -0.77633759272993474 1.061266640418433 0.18405919735146095 
608 1 3.2755612914282102 23.627303697622885 12.304504850947586 -0.0086364107653729844 0.12039184433173691 0.081450451043721367 
609 1 2.9302711551092573 12.658759373537103 0.49262919416827827 0.65681916327486711 -0.96069759939697275 -0.37873615972847768 
610 2 5.5036721694639033 20.60073250472437 11.082804369100916 -0.39348897692214652 0.051963351672885134 -1.3712886462454101 
611 1 6.2577024669063785 20.340182402011621 10.496004137706032 0.04300479815754122 0.11444997879230913 0.40849025091242513 
612 1 5.8598723099586758 20.893972619988546 11.92740470207886 0.4852605084379053 -0.067803689829866343 1.2885245504958425 
613 2 7.1908228346642531 15.583540526777874 10.594704176702498 -0.72741794226184842 0.14743510448595071 -0.14616383107594683 
614 1 6.5512525826461978 15.88168064413192 9.9003339030291553 0.68424104452981394 -0.041251916860506103 0.42524854010883417 
615 1 6.6159226080423776 15.265000401014737 11.337604469307268 0.1017272170124702 -0.1389683233043188 -0.43100636970654332 
616 2 5.2716720783446682 14.338910036054312 12.396404887141021 0.5121871343090636 2.7639736202985805 0.78943490346927281 
617 1 4.6910818494450197 13.603479745983234 12.334604862802594 -1.1124302717752577 -1.5588307087556328 -0.024588071405837082 
618 1 4.6916418496385033 15.099270335920089 0.35009513787044594 0.81544877624168854 -0.88389271588717755 -0.42508475654294964 
619 2 5.0477319900669197 24.286603957790195 6.7558526632023783 0.18841924439702723 0.45538909148030354 0.40396534265635847 
620 1 5.7240722564240603 23.641903703687852 7.0185827669896161 0.32209202405093917 0.10412905043346839 -0.058998077665422963 
621 1 5.2667920765073992 12.72944340159893 7.2043328399273818 0.067624802711273954 -0.21089212083703343 -0.42402338464305611 
622 2 0.54936121641170799 22.478303244957928 2.1976808665107979 0.16353668734553384 0.3552978165741586 -0.53503639751602927 
623 1 1.0159204006748981 23.194303526964511 2.7246210742564401 -0.52993668506041791 -0.25527094539875034 -0.93723941213674655 
624 1 0.1296840509036539 22.829903383447586 1.352370533296994 0.48634490895839078 0.058652234011103255 1.1964287261324194 
625 2 11.390304490369283 13.472309694568047 9.8494538827282572 -1.1219173783799872 1.7460213514715659 -0.82926067950960602 
626 1 11.573304562706538 12.618340357958996 9.4812837378993233 0.053699051226828859 -1.3820246444832389 -0.48861292351810803 
627 1 10.87410428703366 13.918369870362426 9.0729135769508886 0.77460561347721513 -0.39280831223707119 1.0215752838100318 
628 2 9.4717137337140045 21.65037291852391 4.6154218193918002 -0.64860000874500368 0.69931902870632257 1.1034155802325294 
629 1 10.267604047603832 21.282642773431213 4.1935616534328366 0.3548957028169139 -0.16331829249233287 -0.58118764315902027 
630 1 9.7673338504619629 22.482503246673648 5.065601996949856 0.14665558888664446 -0.11528604275116289 -0.20761864486797271 
631 2 4.2676916824188016 19.408902034738286 7.6642530214365534 -0.28351597014166718 1.4665163817039333 1.2655777885601025 
632 1 4.0066315793503042 20.054202289010135 6.9413027365845679 0.14933815139249645 -0.78511793658332907 0.09481695541317986 
633 1 4.1704616442609677 19.977262258665863 8.4970733495695541 0.14492743964153088 -0.9706030728120324 -1.3857129986235885 
634 2 7.384252910935885 20.68699253847776 7.1154528048340762 -0.56590584938642796 0.72355335367212115 1.0379964974269831 
635 1 6.6786026329116392 20.29930238577057 7.6736230252125841 0.1790048688056993 -0.010644467945167074 -0.62833547799663492 
636 1 7.6158030024571683 21.488522854807627 7.6889430313751195 0.074992310016570862 -0.51249999918692934 -0.41725475308998272 
637 2 0.14064105554078637 19.745732167397179 0.20004107867201124 -0.9343389158727029 -0.28260675939832053 -1.447970849912023 
638 1 0.79799431453361835 19.990062263693133 0.80137031589660279 1.4984250373361057 0.83287851865109297 2.254986617269517 
639 1 0.71618728211938143 19.590962106316084 11.83790466656345 -0.35431107221537445 -0.33539907264737023 -0.88932457765630912 
640 2 5.781172279081904 14.61603014510634 7.5243429665291517 -0.49185172834167457 0.074651505726061121 0.50588634515353958 
641 1 5.530992180604092 15.243010392368124 6.818332688191532 0.2307896778631624 -0.065988880406351869 -0.055210969138557296 
642 1 5.2307520621275962 14.881860249945751 8.3083432755076814 0.27614808121861467 -0.11467043995947689 -0.44995175301415691 
643 2 7.9667831405247176 22.867803398564526 8.7458134478522229 -0.72295882912881437 -1.2522233982218101 -0.21507562645136102 
644 1 7.1705128265980935 22.949503430288829 9.3210736747874723 0.49376836609364805 0.68919652636147666 -0.061041615864909714 
645 1 8.3342032856709487 23.731703738758839 8.5081733542929463 -0.31843088752156362 0.64743720355887269 0.18231963302721715 
646 2 12.081704762780227 21.910663021127924 10.311904065234408 0.91173936411737899 0.25903817898359077 0.71486304649359023 
647 1 11.687104607203651 21.107142704271141 10.706504220810984 0.37854328578831059 0.34974358312063386 -0.12875624683810266 
648 1 0.58955323243016799 22.025523066312562 10.653504199664216 -1.0829993410110492 -0.48486580611416941 -0.399059936576589 
649 2 1.22896048463854 16.438650863642238 1.9215007576890526 -0.030672789012431589 -0.098620766311902128 0.20760340256029003 
650 1 2.1466208460532137 16.51625089438464 1.6157406367005833 0.47359645107347625 0.37601147671249019 0.23921801315568433 
651 1 0.72963628753814169 16.82892101771332 1.205210474930255 -0.50137234647991347 -0.10125585916682958 -0.11166971327403638 
652 2 8.0837731869461162 18.117231525645352 12.174604799432565 -0.24814609504751389 -0.040975128004048844 -0.35736467419797752 
653 1 8.0245731636950008 17.266251189877195 11.682504605727713 -0.053819516123265104 0.062023456060923132 0.31351289776821734 
654 1 8.9559335303912011 18.135931532692211 0.1929180761552097 0.37936357588727432 -0.14319017994766683 -0.054278291006191359 
655 2 4.0697316042323859 14.192039977910616 3.2816312937427803 0.31986591195078218 -0.92360995882935704 0.47751805682663806 
656 1 4.570011801765145 14.747530197249768 2.6601210486260598 -0.0061310727289669905 -0.42369767700740685 0.20645246547159682 
657 1 4.6924518500790073 13.408089669298997 3.606531421514354 -0.27409350336935862 1.2303233376370355 -0.97805955124228106 
658 2 9.2126736318159121 21.468112846536826 11.055404358537862 0.86178698866413195 -0.67093913428133256 0.68441207472435528 
659 1 8.7888834650294765 22.299623174264461 10.903604298719163 -0.37935066145635454 1.1017598060711624 -0.27489708896881992 
660 1 8.8671934954785616 20.905782624947797 10.316104066950128 0.14209819902992793 0.38856610702890415 0.2944681974731026 
661 2 11.278304446380686 15.192460372266291 0.25869310188120209 -0.58672151888192836 0.63203933895049069 -0.23235750415136347 
662 1 11.033304349824895 14.883780250911512 11.790004647915836 0.14010781329513858 -0.3274182457047623 -0.24237086035867725 
663 1 10.891704293946153 16.117710737201076 0.25705710132729159 0.80335349830479585 -0.63684210623454274 0.39865547770018961 
664 2 8.2016032333931506 14.049519922054191 1.5682106182280566 -1.5001211955592173 -0.5115341143903992 -0.095720415944482537 
665 1 7.2671828650916206 14.103599943082727 1.2142504785072221 0.89020210186975379 0.27020758371782871 0.23974355479667214 
666 1 8.0839931870788249 13.273399615760461 2.1817008599501357 0.509967697908423 0.094823584259252761 -0.27928219752143185 
667 2 3.2482512806789106 20.321082394146185 5.2566620721285968 0.75372261545974817 -1.069073186614494 -0.43133806159033955 
668 1 3.9975815759116258 19.990002263993688 4.623711822756885 -1.0715439421889041 0.76499820157914111 0.81443704053052401 
669 1 3.1006312223233312 21.256562763135239 5.0957520086425978 0.20890124547043168 0.59402758454280591 -0.33434933303074849 
670 2 5.8264322966661837 24.787204155131128 3.7802514904185096 0.6807383987646245 -2.1863659738670265 1.9586750375403588 
671 1 6.3821325157471573 24.252103943810184 3.1185912295491995 -0.68790026010121097 0.56542040083941902 1.3215899713980719 
672 1 5.8709323147060459 24.223503932908116 4.675951843300882 -0.051223925064688959 1.5388712182361899 -2.8367526111040631 
673 2 2.7629410893862012 22.09056309188383 11.419404501765388 -0.049227800718211506 1.1406951259410256 -1.2093695195536021 
674 1 3.3024113016594918 22.179183126868402 10.590604175191421 -0.35240921674409847 0.11159660041498923 0.33804338838448483 
675 1 2.9721411719474977 21.211752745678091 11.670604600954706 0.29658798556376331 -1.3234544014043095 0.68685095923363315 
676 2 6.6683126286287511 21.862513002233293 4.6364818276698427 0.86156824601952831 0.13053486729288599 1.4099877030652705 
677 1 7.6595330195033711 21.91023302072422 4.481741766703057 -1.0657938265250047 -0.15097451951745655 0.058222590106961562 
678 1 6.6512826223006289 21.669062925709063 5.6279522187914841 0.13490085795549456 0.074742274345988818 -1.3426459814783289 
679 2 8.6987034293925163 24.598304080774284 11.285004448979073 1.0903134544478164 0.15366216853680306 -0.49937810379487618 
680 1 9.6388137999718175 24.736004135022057 11.023804345729912 -0.45675437379694861 -0.26361060601098796 0.27109825467213755 
681 1 8.5805733828607273 12.819432437072567 11.987004725619373 -0.24662626525240983 0.35270348957608166 0.42259209280895665 
682 2 11.870304679421016 13.651289764817092 3.6429614363218414 0.69252209562743972 0.69859701618552195 -2.3932974011141623 
683 1 11.556004555878797 13.373283655423037 4.4926917713840746 -0.64844786961628909 -0.98510307340215941 1.1358968272923691 
684 1 11.432504506877409 13.18229158004478 2.8894911390728506 0.08103498724518847 0.37582837452372564 1.3333363309379926 
685 2 11.266304441403033 23.364903594034715 8.027933164855904 -1.3212592138305961 -0.69803593035857248 0.30813757671168046 
686 1 11.016704342842127 22.447803232813524 8.3552532940872783 0.36955978873861567 1.0729878694312835 -0.39435347654348596 
687 1 12.236004823481595 23.335703582963141 7.9084831175278616 0.46878585550535046 -0.24242787864134893 -0.0888854864376033 
688 2 8.9500535280950295 21.364312805570382 1.4728605805307846 -0.16118924336440568 0.15351973230329813 1.2190639846265534 
689 1 9.2149636329567599 21.359872803998531 0.55692921938937212 0.16283473979174723 -0.10091570799599808 -1.580991845576011 
690 1 9.6785038157355672 20.929802634097349 1.9622507736111483 0.25890300320100329 -0.20501322545521833 0.35179037061231294 
691 2 0.56857922391536131 13.924359872724953 6.2568824666041634 -0.55894845632353718 0.062664376028512048 -0.31304961094467604 
692 1 1.0299104061794673 13.971079891286152 7.1144828044894854 0.28219553941572117 -0.22086775517325155 0.43994049306253991 
693 1 1.1401504496355674 14.487860094538682 5.698682246640522 -0.13020220768131768 0.155866980376408 0.00089002762586962159 
694 2 2.7192910717628642 20.170762335027828 1.9447307666506983 -1.5545828955991923 0.30757472649098477 0.33049599819484088 
695 1 3.5235413891081087 19.924192237957939 1.4881705868316089 0.49330150523797434 0.47835012445345226 -0.03636062025038761 
696 1 2.6735510539371448 21.14661271990218 2.1160908343236748 0.84223341716696998 -0.99346116246921146 -0.42140297301214646 
697 2 8.2317232449715814 13.82318983296013 5.5510521884232311 0.97931568191863394 -0.4619770050990667 -0.38313918988110879 
698 1 7.5676329833099363 13.742929800901795 6.2328124570877028 -0.56545462677120795 0.19426117155760339 0.52471656680681777 
699 1 8.0531231747593335 14.599030138363352 5.0072219740009558 -0.12920880312266408 0.3170405116468874 -0.23456537340114766 
700 2 3.7983714975484659 18.494961674268716 11.343904472145436 0.53829131587354739 0.1080586236960106 0.10652665274121911 
701 1 4.5056017764776959 19.205691954539517 11.247704434031638 -0.5550237920450245 -0.49573230403819324 0.12333566533220829 
702 1 2.9819411755980587 18.835801808624929 10.911804301741313 0.010431219631147204 -0.26608425977385247 0.058411457175149499 
703 2 11.134204389619276 16.985461079188624 3.6025214203462097 0.38414797167045617 -0.00035303659986543525 0.018963401976561968 
704 1 11.820004659566203 17.698641360504357 3.7030314597129048 -0.10715124993350995 -0.66900131722198786 0.2077137863097937 
705 1 11.62520458318976 16.130270742372215 3.5458113975868737 -0.22995593989324409 0.59771152605749167 -0.086608920414391971 
706 2 11.217304422091877 20.622512513099981 2.9292411545360437 0.83506822702940253 0.75330887318014861 -0.65498402473263284 
707 1 11.963204716073355 21.276762771135044 2.5992510246562035 -1.0441353477451316 -1.0476496976086362 0.92073017291986925 
708 1 11.648604591917206 19.852302209745911 3.3689113282076777 0.32738657468982052 0.61527876533813031 -0.33264362832757766 
709 2 8.4934333480473185 13.241098603491791 8.4979333498477914 -0.1513244416435362 0.27368722393770356 1.3212601294008062 
710 1 7.7515330559014499 13.840749839896601 8.6362434046559606 -0.61492488348992502 0.44893757713281035 -1.0058793787016378 
711 1 8.6512534103428553 13.190999583662011 9.4716737337379833 0.59674252047703658 -0.71810164246398656 -0.26643665237704744 
712 2 0.72941528778968545 19.709822153336333 7.4705629450561899 -0.61517528951323064 0.25715582910750923 -1.6100227351585359 
713 1 12.236804824060387 19.811222193095574 7.0126527643265346 1.574689791964035 -0.10287415437561134 1.0525143871678417 
714 1 1.4104505561611411 19.941942244912809 6.7899226767786871 -0.75734985821956335 -0.19758301030228589 0.6868463822144647 
715 2 5.6965422455420516 23.487303642372552 10.706404220606341 -0.14598933320924201 -0.084807101341694571 0.27565664517829719 
716 1 5.5877822027862942 24.083103877368384 11.482604526852114 0.13694972953855328 -0.7268317206350674 -0.42426645912873096 
717 1 5.4388021441876155 22.580303284886678 10.998304335880018 0.23633461818631968 0.66886532023076906 -0.11805395832166662 
718 2 7.8937031118353884 19.730182161240222 9.7889938589095102 -0.85384242261975385 -1.0658950851016635 -2.5428765400194924 
719 1 8.030273165834485 19.139591928809907 10.536504153910284 0.041899881218928618 -0.76773183307446025 0.86279679043622104 
720 1 7.6787630271585838 19.122511921585694 8.9883335432487677 0.40582775663914739 0.88375870689533809 1.8286036081130863 
721 2 8.1703932210128851 23.89120380163483 2.8631611285298542 1.4260315083215955 -1.6426176357774043 -0.31667020322442097 
722 1 8.6619034149391183 23.936103819434909 3.7052114607873969 -0.29163829412836761 0.46875661620123399 0.039684874833049194 
723 1 8.5780133817494377 23.015903456632369 2.5019509864080365 -0.99036699493008962 1.334757183162288 0.0269085239964982 
724 2 1.5121405961434258 23.390903604378646 7.7483730546206555 -0.015150582935307799 -1.7283700912855737 -1.2825801920878439 
725 1 1.730050682082626 23.360403592763419 6.763672666187734 0.15608426528241465 0.17056661199234763 0.90080946699802367 
726 1 1.7669206966263544 24.224503933367018 8.1137331986204586 0.22145104320706055 1.6821563362755816 0.31881937785300307 
727 2 10.77580424832659 15.139350351582346 7.6400330118777164 0.075504144632482326 -0.68729266895959218 -1.2245199460081457 
728 1 11.582804566272344 14.78027021016811 7.1720428271361696 -0.31745285752159086 0.20421672163816251 0.10681460101230847 
729 1 10.089403977680981 14.84638023628861 6.9902727557814153 0.22711377351440207 0.30625577752735195 0.92879735311291911 
730 2 2.0730108172847106 14.042599919323095 0.000299719091655248 0.0099530283406146225 0.70888725116628137 0.25798309193898111 
731 1 2.3159209131089411 14.890090253082214 0.41754716480047227 0.053296151103178896 -0.4377974335048877 -0.063917930565095787 
732 1 1.1088204373272357 14.115629948174693 0.056515422074285927 -0.4807987608823131 -0.17735682293454624 -0.057523432701647746 
733 2 10.840804273921833 17.84724141906624 0.71507328207278165 0.61575634601188289 0.74538828262445711 0.39714617294312587 
734 1 11.010904340498 17.773651390021161 1.6739606597453953 -0.65841115135437989 -0.60064005855001013 0.33166503083660381 
735 1 11.518004540557213 18.583571709391578 0.5653902226651798 -0.41729498435989554 -0.275371451992101 -0.66587000341533065 
736 2 2.4031209476217938 15.599120533049142 4.9864719656693781 -0.48669309201936145 -0.16624996642438683 -1.6330597440133854 
737 1 1.8977307482573451 15.829720623949255 4.1355116301538226 0.82759914355160902 -0.21174800076402397 1.3273462898649588 
738 1 3.0670212092650408 14.92085026533535 4.6764418434040333 -0.24767001164949662 0.62455039498068798 -0.20822197375096088 
739 2 0.75826529893877193 19.04096188990377 3.8923715343351719 -0.67101733965821775 -0.23604103664730539 1.6133796145839003 
740 1 1.2483704919212633 19.100301913335553 3.0827912155547059 1.1246059409656799 0.13096398747889576 -0.80095516073014961 
741 1 1.3320605252308348 19.333572004884132 4.6485718324612497 -0.027479254344351056 -0.19655188313120051 -0.95065096945391381 
742 2 5.5806421999224893 19.518502078048858 3.9435015548830892 0.26991733012963159 -0.54114932954878081 0.51726627274358616 
743 1 5.9262723363022172 19.080051904968837 3.1271612327464373 -0.49494672853440902 0.33675536104202441 -0.15000772189475131 
744 1 6.2032224455884455 20.246822364841265 4.1982316549991072 -0.30505470955664754 0.19969166729033835 -0.30295657349684663 
745 2 4.120171624267865 22.654503314492153 2.4244409560085671 -0.77636555379415617 -0.60095727675419319 1.7604030106831376 
746 1 3.680221450764078 23.405003609949571 2.0140607937514381 0.22264798159527194 0.80311106975041635 -1.5148407356367601 
747 1 3.7330914715918917 22.789203367363221 3.3200413086862963 0.86826570209321352 -0.57918795836652581 0.044325810040047521 
748 2 1.9523707694793666 24.803304161090679 3.1990812610727763 -0.79030182095668544 0.55973833055585231 -0.34143564987043984 
749 1 2.6801710565834878 13.002710509481304 2.9333811565523189 -0.075616546027683376 -0.12852603370849544 0.11205937297173293 
750 1 1.121160441836486 12.951818489028847 3.1264312322579766 0.59393751757470592 -0.54037500898242175 0.57557128648731171 
751 2 6.6901426373712747 17.749321380395969 8.3199832801719591 0.85146557660015809 -0.2852950152634337 -0.71757336130904903 
752 1 5.8127622914989674 18.101901519621105 8.1110631974428156 -0.12914132748623142 0.1110232590296827 -0.42003476812607721 
753 1 7.1391728144280506 17.494061279671598 7.4620929415344177 -0.85649760921497164 0.20749060575343142 0.82483181184239074 
754 2 6.2475624631950435 20.982532655273673 1.2902905085972374 1.3630831705849826 -0.90645236418027331 -0.75461801850847554 
755 1 5.8718823147980386 21.551242879123738 1.9729407776542569 0.029934303594733608 0.3175190388323415 0.42795528306987768 
756 1 7.2635228633167861 20.934742636163243 1.3992405513713932 -1.706695301081645 0.56296630467548014 0.15783394016340307 
757 2 4.0812816090829092 15.582190526396486 9.5824037778264124 0.13373007684626845 -0.22913531143175761 0.60153390250284733 
758 1 4.16980164386284 15.824590621864965 10.533204152448825 -0.22998337111942641 0.011346726651057907 -0.78983992342282971 
759 1 3.6320614320077342 16.311440813557461 9.1173235941186395 -0.042623029756629668 0.18325770120592699 -0.0076408918081321137 
760 2 6.2433024612507015 17.954391461331877 1.8283107208136733 0.64253297389189901 -0.94311740015810974 1.3201625700083004 
761 1 6.8959927186333783 18.343201614426036 1.2104304773574766 -0.18343428871488698 -0.23582071059716542 -0.1148934867988054 
762 1 6.7820226738412872 17.424011252473289 2.4937309831332848 -0.39943094594779216 0.6234328429338023 -1.1070703093765599 
763 2 1.2359304872073695 19.070471901450986 10.195404019445339 -0.7241086984188998 -1.5615951297997186 4.5238238834834217 
764 1 0.82126032394994319 18.199481558230602 10.038903957416879 0.12663163176062969 -0.2155672609674078 -0.32379883944086868 
765 1 1.4575805748734485 19.449652050660383 9.4123637104205145 0.52065187780500932 1.7973154846450359 -4.1347112008487406 
766 2 1.7294806820274307 13.693609781782461 8.6733834191701309 -0.43333125513565773 -0.66877518702737593 -0.35161872043696496 
767 1 0.87497734475951017 13.866109849565829 9.1501236072656038 1.1126944224725324 0.36183855537839837 0.30303138366738258 
768 1 2.5056009877919831 14.183539974803711 8.9791935399963361 -0.4415718373937525 0.3496754065099838 0.67436031217205528 
769 2 15.387590449370975 23.438703623350793 5.3254020994507201 -0.18851284229801007 -1.2676154297282085 0.38454238160414461 
770 1 14.900790257516212 24.06270386948847 4.7741418819415973 -0.16588184840139975 0.79937902338797928 -0.72227693498359935 
771 1 16.151560750644677 23.829403777296402 5.8007522866596037 0.026867026373278216 0.28928585256426037 -0.21161829161290854 
772 2 23.710703730709419 23.611103691458695 0.086768434406444148 0.24385439542100132 -0.52326564158566524 -0.620943889010244 
773 1 22.823703380814059 23.343703586105185 0.34829313707207921 -0.18833589919356292 0.081357446110482318 0.13108606481454121 
774 1 23.866203791749797 23.016203456717122 11.709404616325905 0.040707753947313886 0.29595789367530928 0.34579506929677684 
775 2 22.622603301599447 20.412132430452271 7.5217829654178621 -1.9529591675461282 0.10243373635271608 -1.8710282967325562 
776 1 22.196473133834431 19.720052157390597 8.0675031801624097 0.17212279713189232 0.50236006328801586 -0.11437467273887188 
777 1 21.88206300969668 20.604352505994001 6.7791426723926458 2.0131704607051613 -0.52571825493455415 1.8714566028141131 
778 2 18.214181563971032 16.666820953750019 5.1475620293120645 -0.024833542125303396 2.0720127144664202 -0.13506085102430979 
779 1 18.178301549495316 17.678461352757154 4.9832719644125616 -0.32626001330409754 -1.3950719463701506 0.38645535183268392 
780 1 18.829391806249582 16.438750863846884 4.4326917475541663 0.32091623999605312 -0.53092432816208279 -0.15143251735902352 
781 2 16.218840776989879 16.728220977799047 1.0677604209294989 1.6941126220776006 0.4892305779847802 -0.001280875486300237 
782 1 16.987681080239135 17.035291099192882 1.6758806607111565 -1.1327960724542694 -0.14017552241093853 -1.1898802167798226 
783 1 16.293000806619332 17.361391227832648 0.26631810518189203 -0.087285757485079385 -0.14489993148631253 0.51530062500595364 
784 2 16.329500820987974 22.31179317900791 8.7282534409157506 -1.0235357321744905 1.1506707902914435 -0.48333464037480017 
785 1 16.762830991845419 23.162003514311586 8.4890633465657999 0.25065651846836423 -0.72420903245722834 0.45546998517989629 
786 1 15.400400454259955 22.612103297574738 8.4850533448684793 0.49104413401959746 -0.87801213523293198 0.082116418630162225 
787 2 20.756422565783147 16.176180760492908 3.4283113513389023 0.39308214350934845 -1.1569620533900886 -1.0235356030559528 
788 1 21.623892907938536 16.493440885435813 3.8229515068914997 -0.52025910253261243 -0.54102302399447244 -1.0238359303372231 
789 1 20.92562263263423 15.456290476717076 2.6565710474467563 -0.12639463702870188 1.6259774056831491 1.9338547634182175 
790 2 13.134544561345139 16.319200816843374 9.6309337967578426 -0.79338962098451993 0.18848053515278224 2.5165293913556965 
791 1 13.703379785318713 16.402830849924324 8.906383511277447 2.6303297870182645 0.49702026487789103 -2.3186813830585358 
792 1 24.780204152447993 16.080490722734861 9.142853604082843 -1.9194486403628066 -0.4027072640676278 -0.31180586586949571 
793 2 14.940170273333496 16.84510102415409 7.4511729374968896 0.97811231429690526 1.8433858037844157 0.32867058406908506 
794 1 15.316530421322874 17.784021394256094 7.400512917328701 -0.63891792816553927 -1.4600615471456211 0.10956628259921584 
795 1 15.143130353285246 16.458140871406183 6.5771325930620641 -0.17658395167055438 -0.1501442924918483 -0.21618256970224325 
796 2 22.819903379387739 24.224803933451771 5.5567121905866941 0.24518578059241228 -0.59464874313012628 -0.88028674125463069 
797 1 22.033353069159631 24.769304148133884 5.6265222179288745 -0.63056179319439032 0.7002566580395877 0.24513880426187681 
798 1 22.974503440173855 23.863203790902269 6.4520525436848697 0.43536494579824386 -0.02813051045364047 0.78651731544769798 
799 2 16.061640715116447 24.352003983674837 0.44243817423489507 -0.77633759272997027 1.0612666404184559 0.18405919735146178 
800 1 15.692660569847007 23.627303697622885 12.304504850947586 -0.0086364107653698549 0.12039184433173722 0.081450451043723393 
801 1 15.347370433528052 12.658759373537103 0.49262919416827827 0.65681916327490364 -0.96069759939699984 -0.37873615972847835 
802 2 17.9207714478827 20.60073250472437 11.082804369100916 -0.3934889769221479 0.05196335167286345 -1.3712886462454743 
803 1 18.674801745325176 20.340182402011621 10.496004137706032 0.043004798157520716 0.11444997879231723 0.4084902509124469 
804 1 18.276971588377471 20.893972619988546 11.92740470207886 0.48526050843792889 -0.067803689829852271 1.2885245504958838 
805 2 19.607922113083049 15.583540526777874 10.594704176702498 -0.72741794226180001 0.14743510448593808 -0.14616383107592165 
806 1 18.968351861064995 15.88168064413192 9.9003339030291553 0.68424104452977741 -0.041251916860494203 0.42524854010880625 
807 1 19.033021886461174 15.265000401014737 11.337604469307268 0.10172721701245727 -0.1389683233043198 -0.43100636970653849 
808 2 17.688771356763464 14.338910036054312 12.396404887141021 0.51218713430907248 2.7639736202985747 0.78943490346926537 
809 1 17.108181127863816 13.603479745983234 12.334604862802594 -1.1124302717752577 -1.5588307087556323 -0.024588071405836284 
810 1 17.1087411280573 15.099270335920089 0.35009513787044594 0.81544877624167966 -0.88389271588716822 -0.42508475654294436 
811 2 17.464831268485717 24.286603957790195 6.7558526632023783 0.18841924439692137 0.45538909148037138 0.40396534265630801 
812 1 18.141171534842854 23.641903703687852 7.0185827669896161 0.32209202405103249 0.10412905043339166 -0.05899807766538262 
813 1 17.683891354926196 12.72944340159893 7.2043328399273818 0.06762480271128711 -0.21089212083701964 -0.42402338464304046 
814 2 12.966460494830503 22.478303244957928 2.1976808665107979 0.16353668734553561 0.35529781657416404 -0.53503639751602794 
815 1 13.433019679093693 23.194303526964511 2.7246210742564401 -0.52993668506041702 -0.25527094539875766 -0.93723941213674677 
816 1 12.54678332932245 22.829903383447586 1.352370533296994 0.48634490895838689 0.058652234011100146 1.1964287261324158 
817 2 23.807403768788078 13.472309694568047 9.8494538827282572 -1.1219173783799601 1.7460213514715199 -0.8292606795095927 
818 1 23.990403841125335 12.618340357958996 9.4812837378993233 0.05369905122681505 -1.3820246444832023 -0.48861292351809554 
819 1 23.291203565452456 13.918369870362426 9.0729135769508886 0.77460561347719548 -0.39280831223706658 1.0215752838100045 
820 2 21.8888130121328 21.65037291852391 4.6154218193918002 -0.64860000874500612 0.69931902870632545 1.1034155802325258 
821 1 22.684703326022628 21.282642773431213 4.1935616534328366 0.35489570281691485 -0.16331829249233168 -0.58118764315902205 
822 1 22.184433128880759 22.482503246673648 5.065601996949856 0.14665558888664568 -0.11528604275116368 -0.20761864486797066 
823 2 16.684790960837596 19.408902034738286 7.6642530214365534 -0.28351597014164742 1.4665163817038998 1.2655777885601189 
824 1 16.423730857769101 20.054202289010135 6.9413027365845679 0.1493381513924818 -0.78511793658330831 0.094816955413159376 
825 1 16.587560922679764 19.977262258665863 8.4970733495695541 0.14492743964152296 -0.97060307281202085 -1.3857129986235825 
826 2 19.801352189354681 20.68699253847776 7.1154528048340762 -0.56590584938639332 0.72355335367213647 1.0379964974269571 
827 1 19.095701911330437 20.29930238577057 7.6736230252125841 0.17900486880566888 -0.010644467945180947 -0.62833547799661216 
828 1 20.032902280875966 21.488522854807627 7.6889430313751195 0.074992310016563868 -0.51249999918693023 -0.41725475308998261 
829 2 12.557740333959583 19.745732167397179 0.20004107867201124 -0.93433891587272744 -0.28260675939833713 -1.447970849912037 
830 1 13.215093592952414 19.990062263693133 0.80137031589660279 1.4984250373361256 0.83287851865110152 2.2549866172695294 
831 1 13.133286560538178 19.590962106316084 11.83790466656345 -0.35431107221537433 -0.33539907264736779 -0.88932457765630313 
832 2 18.1982715575007 14.61603014510634 7.5243429665291517 -0.491851728341687 0.074651505726083409 0.50588634515351771 
833 1 17.948091459022887 15.243010392368124 6.818332688191532 0.23078967786317148 -0.065988880406369951 -0.055210969138539151 
834 1 17.647851340546392 14.881860249945751 8.3083432755076814 0.27614808121861301 -0.11467043995947741 -0.44995175301415213 
835 2 20.383882418943514 22.867803398564526 8.7458134478522229 -0.72295882912888765 -1.2522233982218007 -0.21507562645130715 
836 1 19.587612105016888 22.949503430288829 9.3210736747874723 0.4937683660937201 0.68919652636146922 -0.061041615864958473 
837 1 20.751302564089745 23.731703738758839 8.5081733542929463 -0.3184308875215604 0.64743720355887435 0.18231963302721582 
838 2 24.498804041199023 21.910663021127924 10.311904065234408 0.91173936411742906 0.25903817898359721 0.71486304649360888 
839 1 24.104203885622447 21.107142704271141 10.706504220810984 0.37854328578831115 0.34974358312063236 -0.12875624683810366 
840 1 13.006652510848964 22.025523066312562 10.653504199664216 -1.0829993410110057 -0.48486580611416197 -0.39905993657657363 
841 2 13.646059763057336 16.438650863642238 1.9215007576890526 -0.030672789012385647 -0.098620766311903557 0.2076034025602928 
842 1 14.56372012447201 16.51625089438464 1.6157406367005833 0.47359645107344539 0.37601147671248514 0.23921801315569277 
843 1 13.146735565956938 16.82892101771332 1.205210474930255 -0.50137234647992623 -0.10125585916682121 -0.11166971327404751 
844 2 20.500872465364914 18.117231525645352 12.174604799432565 -0.24814609504765398 -0.040975128004053729 -0.35736467419804191 
845 1 20.441672442113799 17.266251189877195 11.682504605727713 -0.05381951612326747 0.062023456060923854 0.31351289776821722 
846 1 21.373032808809995 18.135931532692211 0.1929180761552097 0.37936357588740982 -0.14319017994765904 -0.054278291006122414 
847 2 16.486830882651184 14.192039977910616 3.2816312937427803 0.3198659119507124 -0.92360995882936081 0.47751805682666554 
848 1 16.98711108018394 14.747530197249768 2.6601210486260598 -0.0061310727289353995 -0.42369767700738326 0.20645246547156679 
849 1 17.109551128497802 13.408089669298997 3.606531421514354 -0.2740935033693242 1.2303233376370188 -0.97805955124227872 
850 2 21.629772910234706 21.468112846536826 11.055404358537862 0.86178698866418268 -0.67093913428143115 0.68441207472438181 
851 1 21.205982743448274 22.299623174264461 10.903604298719163 -0.37935066145640445 1.1017598060712539 -0.27489708896884085 
852 1 21.284292773897356 20.905782624947797 10.316104066950128 0.14209819902992726 0.38856610702891009 0.29446819747309738 
853 2 23.695403724799483 15.192460372266291 0.25869310188120209 -0.58672151888192337 0.63203933895048858 -0.23235750415136749 
854 1 23.450403628243691 14.883780250911512 11.790004647915836 0.14010781329514033 -0.32741824570476219 -0.24237086035867442 
855 1 23.308803572364951 16.117710737201076 0.25705710132729159 0.80335349830479541 -0.63684210623453685 0.39865547770019094 
856 2 20.618702511811946 14.049519922054191 1.5682106182280566 -1.500121195559259 -0.51153411439039864 -0.095720415944495429 
857 1 19.684282143510416 14.103599943082727 1.2142504785072221 0.89020210186979309 0.27020758371782472 0.23974355479668591 
858 1 20.501092465497621 13.273399615760461 2.1817008599501357 0.50996769790842544 0.094823584259252955 -0.27928219752143302 
859 2 15.665350559097707 20.321082394146185 5.2566620721285968 0.75372261545971619 -1.0690731866144627 -0.43133806159032612 
860 1 16.41468085433042 19.990002263993688 4.623711822756885 -1.0715439421888753 0.76499820157912979 0.81443704053050248 
861 1 15.517730500742127 21.256562763135239 5.0957520086425978 0.20890124547043229 0.59402758454279025 -0.3343493330307421 
862 2 18.24353157508498 24.787204155131128 3.7802514904185096 0.68073839876464204 -2.1863659738670425 1.9586750375403443 
863 1 18.799231794165955 24.252103943810184 3.1185912295491995 -0.68790026010122163 0.56542040083942946 1.3215899713980845 
864 1 18.288031593124842 24.223503932908116 4.675951843300882 -0.051223925064685108 1.538871218236187 -2.8367526111040609 
865 2 15.180040367804997 22.09056309188383 11.419404501765388 -0.049227800718219618 1.1406951259410223 -1.2093695195535941 
866 1 15.719510580078287 22.179183126868402 10.590604175191421 -0.35240921674409242 0.11159660041498998 0.33804338838447723 
867 1 15.389240450366295 21.211752745678091 11.670604600954706 0.29658798556376248 -1.3234544014043084 0.68685095923363348 
868 2 19.085411907047547 21.862513002233293 4.6364818276698427 0.86156824601951687 0.13053486729289246 1.409987703065271 
869 1 20.076632297922167 21.91023302072422 4.481741766703057 -1.0657938265250015 -0.15097451951745944 0.058222590106966732 
870 1 19.068381900719423 21.669062925709063 5.6279522187914841 0.13490085795550505 0.074742274345989679 -1.3426459814783327 
871 2 21.115802707811312 24.598304080774284 11.285004448979073 1.0903134544478206 0.15366216853680509 -0.49937810379487479 
872 1 22.055913078390613 24.736004135022057 11.023804345729912 -0.45675437379695139 -0.26361060601098629 0.27109825467213433 
873 1 20.997672661279523 12.819432437072567 11.987004725619373 -0.24662626525241066 0.35270348957608033 0.42259209280895671 
874 2 24.287403957839814 13.651289764817092 3.6429614363218414 0.69252209562738143 0.69859701618546621 -2.3932974011141863 
875 1 23.973103834297593 13.373283655423037 4.4926917713840746 -0.64844786961627732 -0.98510307340214165 1.1358968272923444 
876 1 23.849603785296203 13.18229158004478 2.8894911390728506 0.08103498724523539 0.37582837452376489 1.3333363309380395 
877 2 23.683403719821829 23.364903594034715 8.027933164855904 -1.3212592138306773 -0.69803593035857525 0.30813757671169406 
878 1 23.433803621260921 22.447803232813524 8.3552532940872783 0.36955978873862738 1.0729878694312893 -0.39435347654348657 
879 1 24.653104101900389 23.335703582963141 7.9084831175278616 0.46878585550541896 -0.24242787864135523 -0.088885486437611835 
880 2 21.367152806513825 21.364312805570382 1.4728605805307846 -0.16118924336439708 0.15351973230329635 1.2190639846265547 
881 1 21.632062911375556 21.359872803998531 0.55692921938937212 0.1628347397917459 -0.10091570799599844 -1.5809918455760139 
882 1 22.095603094154363 20.929802634097349 1.9622507736111483 0.25890300320100423 -0.20501322545521622 0.35179037061231117 
883 2 12.985678502334157 13.924359872724953 6.2568824666041634 -0.55894845632349799 0.062664376028538665 -0.31304961094467942 
884 1 13.447009684598264 13.971079891286152 7.1144828044894854 0.28219553941571113 -0.22086775517325394 0.43994049306253014 
885 1 13.557249728054364 14.487860094538682 5.698682246640522 -0.13020220768134574 0.15586698037638433 0.00089002762588813661 
886 2 15.13639035018166 20.170762335027828 1.9447307666506983 -1.5545828955991789 0.30757472649098205 0.33049599819483844 
887 1 15.940640667526905 19.924192237957939 1.4881705868316089 0.49330150523796151 0.47835012445345615 -0.036360620250380615 
888 1 15.09065033235594 21.14661271990218 2.1160908343236748 0.8422334171669722 -0.99346116246921112 -0.42140297301214868 
889 2 20.648822523390379 13.82318983296013 5.5510521884232311 0.97931568191852603 -0.4619770050990803 -0.38313918988099521 
890 1 19.98473226172873 13.742929800901795 6.2328124570877028 -0.56545462677109481 0.19426117155761158 0.52471656680670553 
891 1 20.470222453178131 14.599030138363352 5.0072219740009558 -0.12920880312266025 0.31704051164688896 -0.23456537340115405 
892 2 16.215470775967262 18.494961674268716 11.343904472145436 0.53829131587357326 0.10805862369601596 0.10652665274122891 
893 1 16.922701054896493 19.205691954539517 11.247704434031638 -0.55502379204503616 -0.49573230403820573 0.12333566533220876 
894 1 15.399040454016856 18.835801808624929 10.911804301741313 0.010431219631135157 -0.26608425977384748 0.058411457175144663 
895 2 23.551303668038074 16.985461079188624 3.6025214203462097 0.38414797167035686 -0.00035303659989722059 0.018963401976558637 
896 1 24.237103937984998 17.698641360504357 3.7030314597129048 -0.10715124993344413 -0.66900131722193057 0.20771378630980142 
897 1 24.042303861608556 16.130270742372215 3.5458113975868737 -0.22995593989321519 0.59771152605745981 -0.086608920414392804 
898 2 23.634403700510674 20.622512513099981 2.9292411545360437 0.835068227029368 0.75330887318018991 -0.6549840247326576 
899 1 24.380303994492152 21.276762771135044 2.5992510246562035 -1.0441353477451301 -1.0476496976086387 0.92073017291987269 
900 1 24.065703870336002 19.852302209745911 3.3689113282076777 0.32738657468984439 0.61527876533809789 -0.33264362832756039 
901 2 20.910532626466114 13.241098603491791 8.4979333498477914 -0.15132444164353417 0.27368722393769945 1.3212601294008148 
902 1 20.168632334320247 13.840749839896601 8.6362434046559606 -0.61492488348994023 0.44893757713282167 -1.0058793787016485 
903 1 21.068352688761649 13.190999583662011 9.4716737337379833 0.59674252047705134 -0.71810164246399633 -0.26643665237704417 
904 2 13.146514566208481 19.709822153336333 7.4705629450561899 -0.61517528951314171 0.25715582910751933 -1.6100227351585608 
905 1 24.653904102479181 19.811222193095574 7.0126527643265346 1.5746897919640903 -0.10287415437561538 1.0525143871678628 
906 1 13.827549834579937 19.941942244912809 6.7899226767786871 -0.75734985821958123 -0.19758301030229744 0.68684638221450289 
907 2 18.113641523960847 23.487303642372552 10.706404220606341 -0.14598933320924312 -0.084807101341696514 0.27565664517829302 
908 1 18.004881481205089 24.083103877368384 11.482604526852114 0.13694972953855478 -0.72683172063506529 -0.42426645912873029 
909 1 17.855901422606411 22.580303284886678 10.998304335880018 0.23633461818632132 0.66886532023076894 -0.11805395832166729 
910 2 20.310802390254185 19.730182161240222 9.7889938589095102 -0.85384242261975241 -1.0658950851016908 -2.5428765400194653 
911 1 20.447372444253283 19.139591928809907 10.536504153910284 0.041899881218924226 -0.76773183307443937 0.86279679043619772 
912 1 20.095862305577381 19.122511921585694 8.9883335432487677 0.40582775663914716 0.88375870689533642 1.8286036081130834 
913 2 20.587492499431683 23.89120380163483 2.8631611285298542 1.4260315083215371 -1.642617635777369 -0.31667020322445183 
914 1 21.079002693357914 23.936103819434909 3.7052114607873969 -0.29163829412833886 0.46875661620122938 0.039684874833086081 
915 1 20.995112660168232 23.015903456632369 2.5019509864080365 -0.99036699493006397 1.334757183162262 0.026908523996495279 
916 2 13.929239874562221 23.390903604378646 7.7483730546206555 -0.015150582935327044 -1.7283700912855688 -1.2825801920878412 
917 1 14.147149960501421 23.360403592763419 6.763672666187734 0.15608426528241323 0.1705666119923486 0.90080946699802256 
918 1 14.18401997504515 24.224503933367018 8.1137331986204586 0.22145104320706344 1.6821563362755816 0.31881937785300152 
919 2 23.192903526745386 15.139350351582346 7.6400330118777164 0.075504144632484005 -0.68729266895959018 -1.2245199460081417 
920 1 23.99990384469114 14.78027021016811 7.1720428271361696 -0.31745285752159058 0.20421672163816118 0.10681460101230701 
921 1 22.506503256099776 14.84638023628861 6.9902727557814153 0.22711377351440334 0.30625577752735383 0.92879735311291811 
922 2 14.490110095703507 14.042599919323095 0.000299719091655248 0.009953028340594498 0.70888725116628271 0.25798309193898195 
923 1 14.733020191527737 14.890090253082214 0.41754716480047227 0.053296151103179396 -0.43779743350488487 -0.063917930565096703 
924 1 13.525919715746031 14.115629948174693 0.056515422074285927 -0.4807987608822934 -0.17735682293454619 -0.057523432701647399 
925 2 23.257903552340629 17.84724141906624 0.71507328207278165 0.61575634601191098 0.74538828262447288 0.39714617294312737 
926 1 23.428003618916797 17.773651390021161 1.6739606597453953 -0.65841115135438411 -0.60064005855001112 0.33166503083660159 
927 1 23.93510381897601 18.583571709391578 0.5653902226651798 -0.41729498435991763 -0.27537145199211938 -0.66587000341533054 
928 2 14.82022022604059 15.599120533049142 4.9864719656693781 -0.4866930920193599 -0.16624996642438697 -1.633059744013388 
929 1 14.314830026676141 15.829720623949255 4.1355116301538226 0.82759914355161013 -0.21174800076402242 1.3273462898649597 
930 1 15.484120487683837 14.92085026533535 4.6764418434040333 -0.24767001164949518 0.62455039498068854 -0.20822197375096183 
931 2 13.175364577357568 19.04096188990377 3.8923715343351719 -0.67101733965820431 -0.23604103664730403 1.6133796145838706 
932 1 13.66546977034006 19.100301913335553 3.0827912155547059 1.1246059409656632 0.13096398747889407 -0.80095516073012718 
933 1 13.749159803649631 19.333572004884132 4.6485718324612497 -0.027479254344348628 -0.19655188313120112 -0.95065096945390981 
934 2 17.997741478341286 19.518502078048858 3.9435015548830892 0.26991733012961749 -0.54114932954880579 0.51726627274357007 
935 1 18.343371614721015 19.080051904968837 3.1271612327464373 -0.49494672853441612 0.33675536104202841 -0.15000772189474082 
936 1 18.620321724007241 20.246822364841265 4.1982316549991072 -0.30505470955662856 0.19969166729035148 -0.30295657349684235 
937 2 16.537270902686661 22.654503314492153 2.4244409560085671 -0.77636555379414374 -0.60095727675423494 1.7604030106831918 
938 1 16.097320729182876 23.405003609949571 2.0140607937514381 0.22264798159525023 0.80311106975045843 -1.5148407356367848 
939 1 16.150190750010687 22.789203367363221 3.3200413086862963 0.86826570209322851 -0.57918795836652914 0.044325810040016927 
940 2 14.369470047898162 24.803304161090679 3.1990812610727763 -0.79030182095665757 0.55973833055587785 -0.34143564987044717 
941 1 15.097270335002284 13.002710509481304 2.9333811565523189 -0.075616546027706164 -0.12852603370851134 0.11205937297173853 
942 1 13.538259720255281 12.951818489028847 3.1264312322579766 0.59393751757471169 -0.54037500898242274 0.57557128648731237 
943 2 19.10724191579007 17.749321380395969 8.3199832801719591 0.85146557660016076 -0.28529501526342943 -0.71757336130904725 
944 1 18.229861569917762 18.101901519621105 8.1110631974428156 -0.12914132748622553 0.11102325902967999 -0.42003476812608126 
945 1 19.556272092846847 17.494061279671598 7.4620929415344177 -0.85649760921497864 0.20749060575343339 0.8248318118423924 
946 2 18.664661741613841 20.982532655273673 1.2902905085972374 1.3630831705849515 -0.90645236418027086 -0.75461801850847687 
947 1 18.288981593216835 21.551242879123738 1.9729407776542569 0.029934303594734528 0.31751903883234128 0.42795528306987951 
948 1 19.680622141735583 20.934742636163243 1.3992405513713932 -1.706695301081627 0.56296630467548114 0.15783394016340782 
949 2 16.498380887501703 15.582190526396486 9.5824037778264124 0.13373007684629967 -0.22913531143179122 0.60153390250290106 
950 1 16.586900922281636 15.824590621864965 10.533204152448825 -0.22998337111942954 0.011346726651049978 -0.78983992342285969 
951 1 16.049160710426531 16.311440813557461 9.1173235941186395 -0.042623029756656161 0.18325770120596743 -0.007640891808153992 
952 2 18.660401739669496 17.954391461331877 1.8283107208136733 0.64253297389199915 -0.94311740015809342 1.320162570008268 
953 1 19.313091997052176 18.343201614426036 1.2104304773574766 -0.18343428871494749 -0.23582071059719767 -0.11489348679875633 
954 1 19.199121952260082 17.424011252473289 2.4937309831332848 -0.39943094594781781 0.62343284293382273 -1.1070703093765819 
955 2 13.653029765626165 19.070471901450986 10.195404019445339 -0.72410869841890135 -1.5615951297997226 4.5238238834834199 
956 1 13.238359602368739 18.199481558230602 10.038903957416879 0.12663163176062781 -0.21556726096741011 -0.32379883944086896 
957 1 13.874679853292244 19.449652050660383 9.4123637104205145 0.52065187780501254 1.7973154846450348 -4.1347112008487406 
958 2 14.146579960446227 13.693609781782461 8.6733834191701309 -0.43333125513565229 -0.66877518702738936 -0.35161872043698283 
959 1 13.292076623178307 13.866109849565829 9.1501236072656038 1.112694422472507 0.36183855537839865 0.30303138366739368 
960 1 14.922700266210779 14.183539974803711 8.9791935399963361 -0.44157183739373462 0.34967540650999107 0.67436031217205694 
961 2 27.804689727789771 23.438703623350793 5.3254020994507201 -0.18851284229804419 -1.267615429728169 0.38454238160410914 
962 1 27.317889535935006 24.06270386948847 4.7741418819415973 -0.16588184840136572 0.79937902338793898 -0.72227693498356693 
963 1 28.568660029063473 23.829403777296402 5.8007522866596037 0.026867026373280381 0.28928585256426304 -0.21161829161290785 
964 2 36.127803009128215 23.611103691458695 0.086768434406444148 0.24385439542099996 -0.52326564158566735 -0.62094388901023967 
965 1 35.240802659232855 23.343703586105185 0.34829313707207921 -0.1883358991935612 0.081357446110485232 0.13108606481453947 
966 1 36.283303070168593 23.016203456717122 11.709404616325905 0.04070775394731585 0.29595789367531067 0.34579506929677478 
967 2 35.039702580018243 20.412132430452271 7.5217829654178621 -1.9529591675461266 0.10243373635271712 -1.8710282967325604 
968 1 34.613572412253227 19.720052157390597 8.0675031801624097 0.17212279713189368 0.50236006328801552 -0.11437467273887197 
969 1 34.299162288115475 20.604352505994001 6.7791426723926458 2.0131704607051613 -0.52571825493455482 1.8714566028141129 
970 2 30.631280842389828 16.666820953750019 5.1475620293120645 -0.024833542125299708 2.0720127144664189 -0.13506085102430929 
971 1 30.595400827914112 17.678461352757154 4.9832719644125616 -0.32626001330409815 -1.3950719463701491 0.38645535183268342 
972 1 31.246491084668378 16.438750863846884 4.4326917475541663 0.32091623999605012 -0.53092432816208057 -0.15143251735902175 
973 2 28.635940055408675 16.728220977799047 1.0677604209294989 1.6941126220776068 0.48923057798477954 -0.0012808754863020688 
974 1 29.404780358657931 17.035291099192882 1.6758806607111565 -1.1327960724542689 -0.1401755224109387 -1.1898802167798221 
975 1 28.710100085038128 17.361391227832648 0.26631810518189203 -0.087285757485077928 -0.14489993148631197 0.51530062500595419 
976 2 28.74660009940677 22.31179317900791 8.7282534409157506 -1.0235357321744896 1.1506707902914466 -0.48333464037480073 
977 1 29.179930270264215 23.162003514311586 8.4890633465657999 0.25065651846836423 -0.72420903245722856 0.4554699851798959 
978 1 27.817499732678751 22.612103297574738 8.4850533448684793 0.49104413401959318 -0.8780121352329322 0.082116418630161295 
979 2 33.173521844201943 16.176180760492908 3.4283113513389023 0.39308214350925125 -1.1569620533901253 -1.0235356030560021 
980 1 34.040992186357329 16.493440885435813 3.8229515068914997 -0.52025910253251406 -0.54102302399443958 -1.023835930337178 
981 1 33.342721911053026 15.456290476717076 2.6565710474467563 -0.12639463702870346 1.6259774056831466 1.9338547634182206 
982 2 25.551643839763937 16.319200816843374 9.6309337967578426 -0.79338962098457233 0.1884805351527733 2.5165293913557547 
983 1 26.120479063737509 16.402830849924324 8.906383511277447 2.6303297870183182 0.49702026487790024 -2.3186813830585979 
984 1 37.197303430866789 16.080490722734861 9.142853604082843 -1.9194486403628881 -0.40270726406765572 -0.31180586586954218 
985 2 27.357269551752292 16.84510102415409 7.4511729374968896 0.97811231429691015 1.8433858037844033 0.32867058406906419 
986 1 27.73362969974167 17.784021394256094 7.400512917328701 -0.63891792816553983 -1.4600615471456195 0.10956628259921704 
987 1 27.560229631704043 16.458140871406183 6.5771325930620641 -0.17658395167055915 -0.15014429249184361 -0.21618256970222641 
988 2 35.237002657806535 24.224803933451771 5.5567121905866941 0.245185780592414 -0.59464874313012883 -0.8802867412546258 
989 1 34.450452347578427 24.769304148133884 5.6265222179288745 -0.63056179319438888 0.70025665803958781 0.24513880426187412 
990 1 35.391602718592651 23.863203790902269 6.4520525436848697 0.43536494579824447 -0.028130510453639266 0.78651731544769665 
991 2 28.478739993535243 24.352003983674837 0.44243817423489507 -0.77633759272996938 1.0612666404184581 0.184059197351464 
992 1 28.109759848265803 23.627303697622885 12.304504850947586 -0.0086364107653697508 0.12039184433173394 0.081450451043720867 
993 1 27.764469711946848 12.658759373537103 0.49262919416827827 0.65681916327490431 -0.96069759939700083 -0.37873615972848057 
994 2 30.337870726301496 20.60073250472437 11.082804369100916 -0.39348897692214674 0.051963351672867669 -1.3712886462454694 
995 1 31.091901023743972 20.340182402011621 10.496004137706032 0.043004798157524365 0.1144499787923155 0.40849025091244534 
996 1 30.694070866796267 20.893972619988546 11.92740470207886 0.48526050843792518 -0.067803689829851632 1.288524550495882 
997 2 32.025021391501845 15.583540526777874 10.594704176702498 -0.72741794226180245 0.14743510448594138 -0.14616383107592593 
998 1 31.385451139483791 15.88168064413192 9.9003339030291553 0.68424104452977763 -0.041251916860494571 0.42524854010880764 
999 1 31.45012116487997 15.265000401014737 11.337604469307268 0.1017272170124571 -0.13896832330431957 -0.43100636970653872 
1000 2 30.10587063518226 14.338910036054312 12.396404887141021 0.51218713430907192 2.7639736202985752 0.78943490346926504 
1001 1 29.525280406282612 13.603479745983234 12.334604862802594 -1.1124302717752579 -1.5588307087556319 -0.024588071405836201 
1002 1 29.525840406476096 15.099270335920089 0.35009513787044594 0.81544877624167988 -0.88389271588717022 -0.42508475654294575 
1003 2 29.881930546904513 24.286603957790195 6.7558526632023783 0.18841924439692298 0.4553890914803746 0.40396534265630935 
1004 1 30.55827081326165 23.641903703687852 7.0185827669896161 0.3220920240510301 0.10412905043339402 -0.058998077665383383 
1005 1 30.100990633344992 12.72944340159893 7.2043328399273818 0.067624802711285667 -0.2108921208370205 -0.42402338464304035 
1006 2 25.383559773249299 22.478303244957928 2.1976808665107979 0.16353668734554763 0.35529781657416126 -0.53503639751601484 
1007 1 25.850118957512489 23.194303526964511 2.7246210742564401 -0.52993668506041447 -0.25527094539875644 -0.93723941213674222 
1008 1 24.963882607741247 22.829903383447586 1.352370533296994 0.4863449089583739 0.058652234011104379 1.1964287261324005 
1009 2 36.224503047206873 13.472309694568047 9.8494538827282572 -1.1219173783799579 1.7460213514715206 -0.82926067950959459 
1010 1 36.407503119544131 12.618340357958996 9.4812837378993233 0.053699051226816799 -1.3820246444832065 -0.48861292351809349 
1011 1 35.708302843871252 13.918369870362426 9.0729135769508886 0.77460561347719881 -0.39280831223706436 1.0215752838100074 
1012 2 34.305912290551596 21.65037291852391 4.6154218193918002 -0.64860000874498713 0.69931902870634821 1.1034155802325352 
1013 1 35.101802604441424 21.282642773431213 4.1935616534328366 0.3548957028169123 -0.16331829249233962 -0.58118764315902416 
1014 1 34.601532407299558 22.482503246673648 5.065601996949856 0.14665558888662422 -0.11528604275117736 -0.20761864486797776 
1015 2 29.101890239256392 19.408902034738286 7.6642530214365534 -0.28351597014164492 1.4665163817038986 1.2655777885601216 
1016 1 28.840830136187897 20.054202289010135 6.9413027365845679 0.14933815139248113 -0.7851179365833072 0.094816955413155948 
1017 1 29.004660201098559 19.977262258665863 8.4970733495695541 0.14492743964152441 -0.97060307281202141 -1.3857129986235821 
1018 2 32.218451467773477 20.68699253847776 7.1154528048340762 -0.56590584938639421 0.72355335367213769 1.0379964974269555 
1019 1 31.512801189749233 20.29930238577057 7.6736230252125841 0.17900486880566763 -0.01064446794517865 -0.6283354779966116 
1020 1 32.450001559294762 21.488522854807627 7.6889430313751195 0.074992310016562466 -0.5124999991869279 -0.41725475308998028 
1021 2 24.974839612378378 19.745732167397179 0.20004107867201124 -0.93433891587272444 -0.28260675939833574 -1.4479708499120361 
1022 1 25.63219287137121 19.990062263693133 0.80137031589660279 1.4984250373361234 0.83287851865109996 2.2549866172695303 
1023 1 25.550385838956974 19.590962106316084 11.83790466656345 -0.35431107221537372 -0.33539907264736935 -0.88932457765630912 
1024 2 30.615370835919496 14.61603014510634 7.5243429665291517 -0.49185172834168478 0.074651505726080827 0.5058863451535226 
1025 1 30.365190737441683 15.243010392368124 6.818332688191532 0.23078967786317145 -0.065988880406370493 -0.055210969138539762 
1026 1 30.064950618965188 14.881860249945751 8.3083432755076814 0.27614808121861312 -0.11467043995947732 -0.44995175301415286 
1027 2 32.80098169736231 22.867803398564526 8.7458134478522229 -0.72295882912886944 -1.2522233982217765 -0.2150756264513215 
1028 1 32.004711383435684 22.949503430288829 9.3210736747874723 0.49376836609372654 0.68919652636147855 -0.061041615864963858 
1029 1 33.168401842508544 23.731703738758839 8.5081733542929463 -0.31843088752158771 0.64743720355883794 0.18231963302722914 
1030 2 36.915903319617819 21.910663021127924 10.311904065234408 0.91173936411741874 0.25903817898359371 0.71486304649360821 
1031 1 36.521303164041242 21.107142704271141 10.706504220810984 0.37854328578831198 0.34974358312063397 -0.12875624683810274 
1032 1 25.423751789267762 22.025523066312562 10.653504199664216 -1.0829993410110574 -0.48486580611417013 -0.39905993657659256 
1033 2 26.063159041476133 16.438650863642238 1.9215007576890526 -0.030672789012493186 -0.098620766311887889 0.20760340256027826 
1034 1 26.980819402890805 16.51625089438464 1.6157406367005833 0.47359645107352216 0.37601147671249446 0.23921801315566776 
1035 1 25.563834844375734 16.82892101771332 1.205210474930255 -0.50137234647989437 -0.10125585916684432 -0.1116697132740071 
1036 2 32.91797174378371 18.117231525645352 12.174604799432565 -0.24814609504765411 -0.040975128004052265 -0.35736467419804185 
1037 1 32.858771720532594 17.266251189877195 11.682504605727713 -0.053819516123267019 0.062023456060922938 0.31351289776821761 
1038 1 33.790132087228791 18.135931532692211 0.1929180761552097 0.37936357588741088 -0.14319017994766031 -0.054278291006123816 
1039 2 28.903930161069979 14.192039977910616 3.2816312937427803 0.31986591195070713 -0.92360995882936514 0.47751805682666509 
1040 1 29.404210358602736 14.747530197249768 2.6601210486260598 -0.006131072728934088 -0.42369767700738448 0.20645246547156504 
1041 1 29.526650406916598 13.408089669298997 3.606531421514354 -0.27409350336932292 1.2303233376370217 -0.97805955124227884 
1042 2 34.046872188653502 21.468112846536826 11.055404358537862 0.86178698866418268 -0.67093913428143348 0.68441207472437737 
1043 1 33.62308202186707 22.299623174264461 10.903604298719163 -0.37935066145640461 1.1017598060712526 -0.27489708896884157 
1044 1 33.701392052316152 20.905782624947797 10.316104066950128 0.14209819902992465 0.38856610702891148 0.29446819747310304 
1045 2 36.112503003218279 15.192460372266291 0.25869310188120209 -0.58672151888192814 0.63203933895048858 -0.23235750415136591 
1046 1 35.867502906662487 14.883780250911512 11.790004647915836 0.14010781329514124 -0.32741824570476197 -0.24237086035867425 
1047 1 35.725902850783747 16.117710737201076 0.25705710132729159 0.80335349830479563 -0.63684210623453841 0.39865547770018878 
1048 2 33.035801790230742 14.049519922054191 1.5682106182280566 -1.5001211955592575 -0.5115341143903982 -0.095720415944492321 
1049 1 32.101381421929212 14.103599943082727 1.2142504785072221 0.89020210186978854 0.27020758371782716 0.23974355479668391 
1050 1 32.918191743916417 13.273399615760461 2.1817008599501357 0.50996769790842611 0.094823584259253177 -0.27928219752143285 
1051 2 28.082449837516503 20.321082394146185 5.2566620721285968 0.75372261545971353 -1.0690731866144654 -0.43133806159032101 
1052 1 28.831780132749216 19.990002263993688 4.623711822756885 -1.0715439421888764 0.76499820157913501 0.81443704053050248 
1053 1 27.934829779160921 21.256562763135239 5.0957520086425978 0.20890124547043806 0.59402758454278792 -0.33434933303074665 
1054 2 30.660630853503775 24.787204155131128 3.7802514904185096 0.6807383987646406 -2.1863659738670447 1.9586750375403457 
1055 1 31.216331072584751 24.252103943810184 3.1185912295491995 -0.68790026010122218 0.56542040083942879 1.3215899713980876 
1056 1 30.705130871543638 24.223503932908116 4.675951843300882 -0.051223925064685767 1.538871218236187 -2.8367526111040631 
1057 2 27.597139646223795 22.09056309188383 11.419404501765388 -0.04922780071822333 1.1406951259410281 -1.2093695195535892 
1058 1 28.136609858497085 22.179183126868402 10.590604175191421 -0.3524092167440902 0.11159660041498679 0.33804338838447284 
1059 1 27.80633972878509 21.211752745678091 11.670604600954706 0.2965879855637632 -1.3234544014043099 0.68685095923363138 
1060 2 31.502511185466343 21.862513002233293 4.6364818276698427 0.86156824601952076 0.13053486729289085 1.4099877030652719 
1061 1 32.493731576340963 21.91023302072422 4.481741766703057 -1.0657938265250018 -0.15097451951745716 0.058222590106967349 
1062 1 31.485481179138219 21.669062925709063 5.6279522187914841 0.13490085795550366 0.074742274345990442 -1.3426459814783338 
1063 2 33.532901986230108 24.598304080774284 11.285004448979073 1.0903134544476776 0.15366216853678322 -0.49937810379484027 
1064 1 34.473012356809406 24.736004135022057 11.023804345729912 -0.45675437379680256 -0.26361060601097291 0.27109825467209658 
1065 1 33.414771939698319 12.819432437072567 11.987004725619373 -0.2466262652524123 0.35270348957608527 0.42259209280896237 
1066 2 36.70450323625861 13.651289764817092 3.6429614363218414 0.69252209562740186 0.69859701618549364 -2.3932974011142392 
1067 1 36.390203112716392 13.373283655423037 4.4926917713840746 -0.6484478696162953 -0.9851030734021643 1.1358968272923937 
1068 1 36.266703063714999 13.18229158004478 2.8894911390728506 0.081034987245233059 0.37582837452376006 1.3333363309380457 
1069 2 36.100502998240628 23.364903594034715 8.027933164855904 -1.3212592138308705 -0.6980359303586029 0.30813757671172293 
1070 1 35.850902899679717 22.447803232813524 8.3552532940872783 0.36955978873865353 1.0729878694313322 -0.39435347654350184 
1071 1 37.070203380319185 23.335703582963141 7.9084831175278616 0.46878585550556701 -0.24242787864136633 -0.088885486437627295 
1072 2 33.784252084932618 21.364312805570382 1.4728605805307846 -0.16118924336426765 0.15351973230323912 1.2190639846265632 
1073 1 34.049162189794352 21.359872803998531 0.55692921938937212 0.16283473979172397 -0.1009157079959921 -1.5809918455759708 
1074 1 34.512702372573159 20.929802634097349 1.9622507736111483 0.25890300320090809 -0.20501322545516429 0.35179037061226276 
1075 2 25.402777780752952 13.924359872724953 6.2568824666041634 -0.55894845632352286 0.062664376028517266 -0.31304961094465356 
1076 1 25.86410896301706 13.971079891286152 7.1144828044894854 0.28219553941570985 -0.22086775517325313 0.43994049306252569 
1077 1 25.974349006473158 14.487860094538682 5.698682246640522 -0.13020220768132065 0.15586698037640664 0.00089002762586997601 
1078 2 27.553489628600456 20.170762335027828 1.9447307666506983 -1.5545828955992538 0.30757472649100809 0.33049599819487868 
1079 1 28.357739945945699 19.924192237957939 1.4881705868316089 0.49330150523803751 0.47835012445343017 -0.036360620250423331 
1080 1 27.507749610774738 21.14661271990218 2.1160908343236748 0.84223341716696631 -0.99346116246920857 -0.42140297301214613 
1081 2 33.065921801809175 13.82318983296013 5.5510521884232311 0.97931568191852092 -0.4619770050990768 -0.38313918988098999 
1082 1 32.401831540147526 13.742929800901795 6.2328124570877028 -0.56545462677109348 0.19426117155761044 0.52471656680670453 
1083 1 32.887321731596927 14.599030138363352 5.0072219740009558 -0.12920880312266012 0.31704051164688801 -0.23456537340115621 
1084 2 28.632570054386058 18.494961674268716 11.343904472145436 0.53829131587357282 0.10805862369601418 0.10652665274122916 
1085 1 29.339800333315289 19.205691954539517 11.247704434031638 -0.55502379204503649 -0.49573230403820362 0.12333566533220916 
1086 1 27.816139732435651 18.835801808624929 10.911804301741313 0.010431219631132867 -0.26608425977384836 0.058411457175143289 
1087 2 35.96840294645687 16.985461079188624 3.6025214203462097 0.3841479716703145 -0.00035303659982285907 0.018963401976563724 
1088 1 36.654203216403793 17.698641360504357 3.7030314597129048 -0.10715124993344127 -0.66900131722194556 0.2077137863097982 
1089 1 36.459403140027348 16.130270742372215 3.5458113975868737 -0.22995593989316765 0.59771152605740407 -0.086608920414398938 
1090 2 36.05150297892947 20.622512513099981 2.9292411545360437 0.83506822702936223 0.75330887318019024 -0.65498402473266082 
1091 1 36.797403272910948 21.276762771135044 2.5992510246562035 -1.0441353477451267 -1.0476496976086405 0.92073017291987325 
1092 1 36.482803148754797 19.852302209745911 3.3689113282076777 0.32738657468984872 0.61527876533809656 -0.33264362832755801 
1093 2 33.32763190488491 13.241098603491791 8.4979333498477914 -0.15132444164363265 0.27368722393778361 1.3212601294008171 
1094 1 32.585731612739039 13.840749839896601 8.6362434046559606 -0.61492488348983432 0.44893757713273458 -1.0058793787016578 
1095 1 33.485451967180445 13.190999583662011 9.4716737337379833 0.5967425204770449 -0.71810164246398567 -0.26643665237704323 
1096 2 25.563613844627277 19.709822153336333 7.4705629450561899 -0.61517528951319789 0.25715582910752305 -1.6100227351585759 
1097 1 37.071003380897977 19.811222193095574 7.0126527643265346 1.5746897919640985 -0.10287415437561373 1.0525143871678586 
1098 1 26.244649112998733 19.941942244912809 6.7899226767786871 -0.75734985821958523 -0.19758301030229594 0.68684638221449978 
1099 2 30.530740802379643 23.487303642372552 10.706404220606341 -0.14598933320924168 -0.084807101341693281 0.27565664517829436 
1100 1 30.421980759623885 24.083103877368384 11.482604526852114 0.1369497295385535 -0.72683172063506807 -0.42426645912873362 
1101 1 30.273000701025207 22.580303284886678 10.998304335880018 0.23633461818632112 0.66886532023076894 -0.11805395832166596 
1102 2 32.727901668672978 19.730182161240222 9.7889938589095102 -0.85384242261973842 -1.0658950851016871 -2.5428765400194551 
1103 1 32.864471722672079 19.139591928809907 10.536504153910284 0.041899881218920604 -0.76773183307443371 0.86279679043618529 
1104 1 32.512961583996173 19.122511921585694 8.9883335432487677 0.40582775663914883 0.8837587068953332 1.8286036081130879 
1105 2 33.004591777850479 23.89120380163483 2.8631611285298542 1.4260315083215391 -1.6426176357773716 -0.31667020322444961 
1106 1 33.49610197177671 23.936103819434909 3.7052114607873969 -0.29163829412833753 0.46875661620122555 0.039684874833086553 
1107 1 33.412211938587028 23.015903456632369 2.5019509864080365 -0.99036699493006664 1.3347571831622635 0.026908523996496424 
1108 2 26.346339152981017 23.390903604378646 7.7483730546206555 -0.015150582935311446 -1.7283700912855708 -1.2825801920878521 
1109 1 26.564249238920219 23.360403592763419 6.763672666187734 0.15608426528240488 0.17056661199234802 0.90080946699803366 
1110 1 26.601119253463946 24.224503933367018 8.1137331986204586 0.22145104320706116 1.6821563362755818 0.31881937785300329 
1111 2 35.610002805164186 15.139350351582346 7.6400330118777164 0.075504144632302927 -0.68729266895958741 -1.2245199460081639 
1112 1 36.417003123109936 14.78027021016811 7.1720428271361696 -0.31745285752149688 0.20421672163812321 0.10681460101225715 
1113 1 34.923602534518572 14.84638023628861 6.9902727557814153 0.22711377351448092 0.30625577752738603 0.92879735311298794 
1114 2 26.907209374122303 14.042599919323095 0.000299719091655248 0.0099530283405805647 0.70888725116628282 0.25798309193898417 
1115 1 27.150119469946532 14.890090253082214 0.41754716480047227 0.053296151103196403 -0.43779743350487832 -0.063917930565093414 
1116 1 25.943018994164827 14.115629948174693 0.056515422074285927 -0.48079876088229712 -0.17735682293455579 -0.057523432701651528 
1117 2 35.675002830759425 17.84724141906624 0.71507328207278165 0.61575634601190821 0.74538828262446732 0.3971461729431271 
1118 1 35.845102897335593 17.773651390021161 1.6739606597453953 -0.65841115135438444 -0.60064005855001046 0.33166503083660326 
1119 1 36.352203097394806 18.583571709391578 0.5653902226651798 -0.4172949843599163 -0.27537145199212076 -0.66587000341532943 
1120 2 27.237319504459386 15.599120533049142 4.9864719656693781 -0.48669309201937899 -0.16624996642437115 -1.6330597440133794 
1121 1 26.731929305094937 15.829720623949255 4.1355116301538226 0.82759914355160913 -0.21174800076402087 1.3273462898649604 
1122 1 27.901219766102631 14.92085026533535 4.6764418434040333 -0.24767001164947211 0.62455039498066889 -0.20822197375096599 
1123 2 25.592463855776362 19.04096188990377 3.8923715343351719 -0.67101733965815102 -0.23604103664729997 1.6133796145838251 
1124 1 26.082569048758856 19.100301913335553 3.0827912155547059 1.1246059409656277 0.13096398747888829 -0.80095516073007822 
1125 1 26.166259082068425 19.333572004884132 4.6485718324612497 -0.027479254344352159 -0.19655188313120095 -0.9506509694539077 
1126 2 30.414840756760082 19.518502078048858 3.9435015548830892 0.26991733012961999 -0.54114932954880135 0.51726627274357062 
1127 1 30.760470893139811 19.080051904968837 3.1271612327464373 -0.49494672853441546 0.33675536104202947 -0.15000772189474093 
1128 1 31.037421002426036 20.246822364841265 4.1982316549991072 -0.30505470955663083 0.19969166729035148 -0.30295657349684224 
1129 2 28.954370181105457 22.654503314492153 2.4244409560085671 -0.77636555379414751 -0.6009572767542366 1.7604030106831907 
1130 1 28.514420007601672 23.405003609949571 2.0140607937514381 0.22264798159525118 0.80311106975045776 -1.514840735636783 
1131 1 28.567290028429483 22.789203367363221 3.3200413086862963 0.86826570209322829 -0.5791879583665307 0.044325810040017045 
1132 2 26.786569326316958 24.803304161090679 3.1990812610727763 -0.79030182095656654 0.55973833055588063 -0.34143564987045927 
1133 1 27.514369613421081 13.002710509481304 2.9333811565523189 -0.075616546027738471 -0.12852603370853066 0.11205937297175032 
1134 1 25.955358998674079 12.951818489028847 3.1264312322579766 0.59393751757466229 -0.54037500898239044 0.57557128648730549 
1135 2 31.524341194208866 17.749321380395969 8.3199832801719591 0.85146557660015942 -0.28529501526343365 -0.71757336130904814 
1136 1 30.646960848336558 18.101901519621105 8.1110631974428156 -0.12914132748622884 0.11102325902968059 -0.42003476812608065 
1137 1 31.973371371265642 17.494061279671598 7.4620929415344177 -0.85649760921497775 0.20749060575343253 0.82483181184238985 
1138 2 31.081761020032637 20.982532655273673 1.2902905085972374 1.3630831705849469 -0.90645236418027009 -0.75461801850847432 
1139 1 30.706080871635631 21.551242879123738 1.9729407776542569 0.029934303594733619 0.31751903883233873 0.42795528306987624 
1140 1 32.097721420154379 20.934742636163243 1.3992405513713932 -1.7066953010816266 0.56296630467547992 0.15783394016340641 
1141 2 28.915480165920499 15.582190526396486 9.5824037778264124 0.13373007684630112 -0.22913531143179194 0.6015339025028984 
1142 1 29.004000200700432 15.824590621864965 10.533204152448825 -0.22998337111942985 0.011346726651048869 -0.78983992342286036 
1143 1 28.466259988845326 16.311440813557461 9.1173235941186395 -0.042623029756658021 0.18325770120596588 -0.0076408918081549634 
1144 2 31.077501018088292 17.954391461331877 1.8283107208136733 0.64253297389200115 -0.94311740015809353 1.320162570008272 
1145 1 31.730191275470972 18.343201614426036 1.2104304773574766 -0.18343428871494771 -0.23582071059719664 -0.11489348679875659 
1146 1 31.616221230678878 17.424011252473289 2.4937309831332848 -0.39943094594781869 0.62343284293382306 -1.1070703093765835 
1147 2 26.070129044044961 19.070471901450986 10.195404019445339 -0.72410869841890246 -1.561595129799733 4.5238238834834483 
1148 1 25.655458880787535 18.199481558230602 10.038903957416879 0.12663163176062853 -0.21556726096741105 -0.3237988394408654 
1149 1 26.291779131711039 19.449652050660383 9.4123637104205145 0.52065187780501443 1.7973154846450545 -4.1347112008487654 
1150 2 26.563679238865021 13.693609781782461 8.6733834191701309 -0.43333125513554305 -0.66877518702736882 -0.35161872043699505 
1151 1 25.709175901597103 13.866109849565829 9.1501236072656038 1.1126944224724504 0.36183855537841314 0.30303138366742494 
1152 1 27.339799544629575 14.183539974803711 8.9791935399963361 -0.44157183739377803 0.34967540650996437 0.6743603121720394 
