LAMMPS (4 Feb 2020)
clear
units metal
boundary p p p
atom_style atomic
read_data ${data_file}
read_data /home/yuki/AccelNet-lammps/examples/water/01_Start/firstframe.start
  orthogonal box = (0 0 0) to (12.4171 12.4171 12.4171)
  1 by 1 by 1 MPI processor grid
  reading atoms ...
  192 atoms
  read_data CPU = 0.000436023 secs
replicate 3 2 1
  orthogonal box = (0 0 0) to (37.2513 24.8342 12.4171)
  1 by 1 by 1 MPI processor grid
  1152 atoms
  replicate CPU = 0.000397351 secs
mass 1 1.007825
mass 2 15.994915
pair_style ${pair_name} ${model_1} ${model_2}
pair_style accelnet ${model_1} ${model_2}
pair_style accelnet H.ann ${model_2}
pair_style accelnet H.ann O.ann
pair_coeff * *
thermo_style custom step pe
thermo_modify format float %.17g
thermo 1
dump check all custom 1 ${dump_file} id type x y z fx fy fz
dump check all custom 1 /home/yuki/AccelNet-lammps/linux/results/smoke-20260801-204839/water-accelnet.dump id type x y z fx fy fz
dump_modify check first yes sort id format line "%d %d %.17g %.17g %.17g %.17g %.17g %.17g"
run 0
WARNING: No fixes defined, atoms won't move (../verlet.cpp:52)
Neighbor list info ...
  update every 1 steps, delay 10 steps, check yes
  max neighbors/atom: 2000, page size: 100000
  master list distance cutoff = 8.35
  ghost atom cutoff = 8.35
  binsize = 4.175, bins = 9 6 3
  1 neighbor lists, perpetual/occasional/extra = 1 0 0
  (1) pair accelnet, perpetual
      attributes: full, newton on
      pair build: full/bin/atomonly
      stencil: full/bin/3d
      bin: standard
Per MPI rank memory allocation (min/avg/max) = 5.533 | 5.533 | 5.533 Mbytes
Step PotEng 
       0 -180337.16145393124 
Loop time of 1.70618e-06 on 1 procs for 0 steps with 1152 atoms

58.6% CPU use with 1 MPI tasks x no OpenMP threads

MPI task timing breakdown:
Section |  min time  |  avg time  |  max time  |%varavg| %total
---------------------------------------------------------------
Pair    | 0          | 0          | 0          |   0.0 |  0.00
Neigh   | 0          | 0          | 0          |   0.0 |  0.00
Comm    | 0          | 0          | 0          |   0.0 |  0.00
Output  | 0          | 0          | 0          |   0.0 |  0.00
Modify  | 0          | 0          | 0          |   0.0 |  0.00
Other   |            | 1.706e-06  |            |       |100.00

Nlocal:    1152 ave 1152 max 1152 min
Histogram: 1 0 0 0 0 0 0 0 0 0
Nghost:    5321 ave 5321 max 5321 min
Histogram: 1 0 0 0 0 0 0 0 0 0
Neighs:    0 ave 0 max 0 min
Histogram: 1 0 0 0 0 0 0 0 0 0
FullNghs:  280260 ave 280260 max 280260 min
Histogram: 1 0 0 0 0 0 0 0 0 0

Total # of neighbors = 280260
Ave neighs/atom = 243.281
Neighbor list builds = 0
Dangerous builds = 0
Total wall time: 0:00:00
