ITEM: TIMESTEP
0
ITEM: NUMBER OF ATOMS
1152
ITEM: BOX BOUNDS xy xz yz pp pp pp
-1.2720000000000000e-05 3.8034676560000001e+01 -1.2720000000000000e-05
0.0000000000000000e+00 3.0427727139999998e+01 7.6068619200000001e+00
0.0000000000000000e+00 1.9399731119999998e+01 7.6068661600000000e+00
ITEM: ATOMS id type x y z fx fy fz 
1 1 3.8033306100000002 2.8527413699999995 1.21248333 -9.9467532044539286e-05 9.9225311809794658e-05 1.5307701439759569e-08 
2 1 1.9018596900000002 2.8524521100000007 3.6374498200000001 9.9169095690021525e-05 -9.9508710650619836e-05 -1.5080278803480951e-08 
3 2 3.8035205200000006 0.95086874000000032 0.7909382399999999 -0.00010886276161480718 -0.00026059213665533681 1.1905841749714887 
4 2 1.9016696799999993 4.7543246400000001 4.05899491 0.00010897096835480596 0.00026074251274074353 -1.1905841750635691 
5 2 3.8034638799999998 2.8526409600000004 3.215904689999999 -0.00026100313523981511 -0.00010899592630576882 1.1905836026912526 
6 2 1.9017263099999999 2.8525524199999999 1.6340284599999999 0.00026119336491703393 0.00010912894909560766 -1.190583602826605 
7 1 7.6068074400000008 2.8527413699999995 1.21248333 -9.9467532037876213e-05 9.9225311814091135e-05 1.5307697467242809e-08 
8 1 5.7053365199999986 2.8524521100000007 3.6374498200000001 9.9169095686676978e-05 -9.950871066834524e-05 -1.5080270560074993e-08 
9 2 7.6069973500000003 0.95086874000000032 0.7909382399999999 -0.00010886276162949508 -0.00026059213665705744 1.1905841749714987 
10 2 5.7051465099999978 4.7543246400000001 4.05899491 0.00010897096836392714 0.00026074251274424073 -1.1905841750635695 
11 2 7.6069407099999999 2.8526409600000004 3.215904689999999 -0.00026100313524410335 -0.00010899592630357613 1.1905836026912588 
12 2 5.7052031400000001 2.8525524199999999 1.6340284599999999 0.00026119336491334244 0.00010912894908942511 -1.1905836028266115 
13 1 11.41028427 2.8527413699999995 1.21248333 -9.9467532035137519e-05 9.9225311811723671e-05 1.5307705436562458e-08 
14 1 9.5088133500000005 2.8524521100000007 3.6374498200000001 9.9169095681465272e-05 -9.9508710664453388e-05 -1.508027948514935e-08 
15 2 11.410474180000001 0.95086874000000032 0.7909382399999999 -0.00010886276163727955 -0.00026059213665641234 1.1905841749714994 
16 2 9.5086233399999998 4.7543246400000001 4.05899491 0.00010897096835373044 0.00026074251274623382 -1.1905841750635686 
17 2 11.410417540000001 2.8526409600000004 3.215904689999999 -0.00026100313524894799 -0.00010899592630225774 1.1905836026912535 
18 2 9.5086799699999993 2.8525524199999999 1.6340284599999999 0.00026119336491471179 0.00010912894909131943 -1.1905836028266119 
19 1 15.213761099999999 2.8527413699999995 1.21248333 -9.9467532039048615e-05 9.922531181216776e-05 1.5307695278021782e-08 
20 1 13.312290180000002 2.8524521100000007 3.6374498200000001 9.9169095674972528e-05 -9.9508710665330291e-05 -1.5080284521129528e-08 
21 2 15.213951010000002 0.95086874000000032 0.7909382399999999 -0.00010886276163581026 -0.00026059213666052017 1.1905841749714918 
22 2 13.312100170000004 4.7543246400000001 4.05899491 0.00010897096833081994 0.00026074251274056225 -1.1905841750635608 
23 2 15.213894369999998 2.8526409600000004 3.215904689999999 -0.00026100313521317453 -0.00010899592630532473 1.1905836026912755 
24 2 13.312156800000004 2.8525524199999999 1.6340284599999999 0.00026119336487900771 0.00010912894909093085 -1.1905836028266235 
25 1 19.01723793 2.8527413699999995 1.21248333 -9.9467532036914092e-05 9.9225311818273987e-05 1.5307704159805979e-08 
26 1 17.115767010000006 2.8524521100000007 3.6374498200000001 9.9169095683688917e-05 -9.9508710661222466e-05 -1.5080273307876979e-08 
27 2 19.017427840000007 0.95086874000000032 0.7909382399999999 -0.00010886276167030703 -0.00026059213664852976 1.1905841749715069 
28 2 17.115577000000002 4.7543246400000001 4.05899491 0.00010897096834690994 0.00026074251274440033 -1.1905841750635682 
29 2 19.017371199999999 2.8526409600000004 3.215904689999999 -0.00026100313521508619 -0.00010899592630185528 1.1905836026912482 
30 2 17.115633629999998 2.8525524199999999 1.6340284599999999 0.00026119336492470748 0.00010912894909431703 -1.1905836028266241 
31 1 22.820714760000008 2.8527413699999995 1.21248333 -9.9467532047142347e-05 9.9225311807397596e-05 1.5307712313973628e-08 
32 1 20.919243840000007 2.8524521100000007 3.6374498200000001 9.9169095667795516e-05 -9.9508710656559529e-05 -1.5080273169099101e-08 
33 2 22.820904670000012 0.95086874000000032 0.7909382399999999 -0.00010886276167755213 -0.00026059213666283136 1.1905841749714916 
34 2 20.91905383000001 4.7543246400000001 4.05899491 0.00010897096828899793 0.00026074251274570658 -1.1905841750635626 
35 2 22.820848030000001 2.8526409600000004 3.215904689999999 -0.00026100313522892798 -0.00010899592630329857 1.1905836026912631 
36 2 20.919110460000006 2.8525524199999999 1.6340284599999999 0.00026119336485640968 0.00010912894909109738 -1.1905836028266241 
37 1 26.624191590000002 2.8527413699999995 1.21248333 -9.9467532027927574e-05 9.9225311798165072e-05 1.5307697248667651e-08 
38 1 24.722720670000005 2.8524521100000007 3.6374498200000001 9.9169095680569017e-05 -9.9508710667613919e-05 -1.5080292362079639e-08 
39 2 26.624381500000005 0.95086874000000032 0.7909382399999999 -0.00010886276165552114 -0.00026059213664304803 1.1905841749714621 
40 2 24.722530660000007 4.7543246400000001 4.05899491 0.00010897096830621462 0.00026074251274108007 -1.1905841750635635 
41 2 26.624324859999998 2.8526409600000004 3.215904689999999 -0.00026100313520066587 -0.00010899592630736477 1.1905836026912373 
42 2 24.72258729 2.8525524199999999 1.6340284599999999 0.00026119336492180095 0.00010912894908954437 -1.1905836028266077 
43 1 30.427668420000003 2.8527413699999995 1.21248333 -9.9467532026498162e-05 9.9225311822603857e-05 1.5307713985279747e-08 
44 1 28.526197500000002 2.8524521100000007 3.6374498200000001 9.916909568497001e-05 -9.9508710658696709e-05 -1.5080296400515891e-08 
45 2 30.427858330000014 0.95086874000000032 0.7909382399999999 -0.0001088627616874227 -0.00026059213666629333 1.190584174971492 
46 2 28.526007490000008 4.7543246400000001 4.05899491 0.00010897096831692654 0.00026074251274200294 -1.1905841750635742 
47 2 30.427801689999999 2.8526409600000004 3.215904689999999 -0.00026100313524879404 -0.00010899592630828243 1.190583602691254 
48 2 28.526064120000001 2.8525524199999999 1.6340284599999999 0.00026119336489779585 0.00010912894910092286 -1.1905836028266084 
49 1 3.8033284900000002 6.6562181999999979 1.21248333 -9.9467532037822437e-05 9.9225311805768365e-05 1.5307722700530491e-08 
50 1 1.9018575700000002 6.6559289400000008 3.6374498200000001 9.9169095678974806e-05 -9.9508710669507505e-05 -1.5080276138945692e-08 
51 2 3.8035184000000024 4.7543455700000008 0.7909382399999999 -0.00010886276163809411 -0.00026059213665549251 1.1905841749714967 
52 2 1.9016675599999993 8.5578014700000011 4.05899491 0.00010897096835264797 0.00026074251272078814 -1.1905841750635737 
53 2 3.8034617599999998 6.6561177900000006 3.215904689999999 -0.00026100313523553728 -0.00010899592628542919 1.1905836026912504 
54 2 1.9017241899999999 6.6560292499999996 1.6340284599999999 0.00026119336491903233 0.00010912894911065986 -1.1905836028266172 
55 1 7.6068053200000003 6.6562181999999979 1.21248333 -9.9467532044364079e-05 9.9225311811656288e-05 1.5307719189016494e-08 
56 1 5.7053343999999999 6.6559289400000008 3.6374498200000001 9.9169095685969211e-05 -9.9508710671708002e-05 -1.5080276208334631e-08 
57 2 7.6069952299999999 4.7543455700000008 0.7909382399999999 -0.00010886276162680106 -0.00026059213666001688 1.1905841749715003 
58 2 5.7051443899999992 8.5578014700000011 4.05899491 0.00010897096835476433 0.00026074251272920328 -1.1905841750635722 
59 2 7.6069385900000004 6.6561177900000006 3.215904689999999 -0.00026100313524152902 -0.0001089959262901935 1.190583602691242 
60 2 5.7052010199999996 6.6560292499999996 1.6340284599999999 0.00026119336491460532 0.00010912894910571416 -1.1905836028266163 
61 1 11.410282150000004 6.6562181999999979 1.21248333 -9.946753204024735e-05 9.922531180733829e-05 1.5307729967287131e-08 
62 1 9.5088112299999992 6.6559289400000008 3.6374498200000001 9.9169095682050985e-05 -9.9508710675285002e-05 -1.5080269596453043e-08 
63 2 11.410472060000002 4.7543455700000008 0.7909382399999999 -0.00010886276163145025 -0.00026059213665879932 1.190584174971504 
64 2 9.508621220000002 8.5578014700000011 4.05899491 0.00010897096834866851 0.00026074251272650096 -1.1905841750635708 
65 2 11.410415420000003 6.6561177900000006 3.215904689999999 -0.00026100313525071524 -0.00010899592629000365 1.1905836026912484 
66 2 9.5086778500000033 6.6560292499999996 1.6340284599999999 0.00026119336488894388 0.0001091289491031433 -1.190583602826619 
67 1 15.21375898 6.6562181999999979 1.21248333 -9.9467532056547679e-05 9.9225311807261962e-05 1.5307729394828384e-08 
68 1 13.31228806 6.6559289400000008 3.6374498200000001 9.9169095689044523e-05 -9.9508710682080781e-05 -1.508028325478139e-08 
69 2 15.213948889999999 4.7543455700000008 0.7909382399999999 -0.00010886276162047959 -0.00026059213665136083 1.1905841749714934 
70 2 13.312098049999999 8.5578014700000011 4.05899491 0.00010897096834972301 0.00026074251272239623 -1.190584175063562 
71 2 15.213892249999999 6.6561177900000006 3.215904689999999 -0.00026100313522113604 -0.00010899592627612587 1.1905836026912504 
72 2 13.312154680000004 6.6560292499999996 1.6340284599999999 0.00026119336487990272 0.00010912894911671578 -1.1905836028266232 
73 1 19.01723581000001 6.6562181999999979 1.21248333 -9.9467532050517116e-05 9.9225311796239529e-05 1.5307708359571515e-08 
74 1 17.115764889999998 6.6559289400000008 3.6374498200000001 9.9169095688977655e-05 -9.9508710689547031e-05 -1.5080264401806653e-08 
75 2 19.017425720000006 4.7543455700000008 0.7909382399999999 -0.00010886276166329847 -0.00026059213664871017 1.1905841749715047 
76 2 17.11557488 8.5578014700000011 4.05899491 0.00010897096834464395 0.00026074251274871198 -1.1905841750635844 
77 2 19.017369079999998 6.6561177900000006 3.215904689999999 -0.00026100313520015369 -0.00010899592628978161 1.1905836026912355 
78 2 17.11563151 6.6560292499999996 1.6340284599999999 0.00026119336491602443 0.00010912894911292714 -1.190583602826649 
79 1 22.820712640000011 6.6562181999999979 1.21248333 -9.9467532043974146e-05 9.922531181399647e-05 1.5307719994719316e-08 
80 1 20.919241720000006 6.6559289400000008 3.6374498200000001 9.91690956824653e-05 -9.9508710681428525e-05 -1.5080280923313039e-08 
81 2 22.820902550000007 4.7543455700000008 0.7909382399999999 -0.0001088627616501938 -0.0002605921366585949 1.1905841749714807 
82 2 20.919051710000002 8.5578014700000011 4.05899491 0.00010897096832867908 0.00026074251272288889 -1.190584175063564 
83 2 22.820845910000003 6.6561177900000006 3.215904689999999 -0.00026100313522878704 -0.00010899592628380028 1.1905836026912602 
84 2 20.919108340000015 6.6560292499999996 1.6340284599999999 0.00026119336479162145 0.00010912894910054816 -1.1905836028266146 
85 1 26.624189469999997 6.6562181999999979 1.21248333 -9.9467532029804545e-05 9.9225311814366617e-05 1.5307741685344212e-08 
86 1 24.722718550000007 6.6559289400000008 3.6374498200000001 9.9169095680260236e-05 -9.9508710673362847e-05 -1.5080294953756512e-08 
87 2 26.624379379999997 4.7543455700000008 0.7909382399999999 -0.00010886276162196812 -0.00026059213666611292 1.1905841749714783 
88 2 24.722528539999999 8.5578014700000011 4.05899491 0.0001089709683284798 0.00026074251273442654 -1.1905841750635515 
89 2 26.624322739999997 6.6561177900000006 3.215904689999999 -0.00026100313518653134 -0.00010899592628718668 1.1905836026912411 
90 2 24.722585170000009 6.6560292499999996 1.6340284599999999 0.00026119336484294736 0.00010912894909280061 -1.1905836028266146 
91 1 30.427666299999999 6.6562181999999979 1.21248333 -9.9467532025110383e-05 9.9225311803029671e-05 1.5307724754443086e-08 
92 1 28.526195380000001 6.6559289400000008 3.6374498200000001 9.9169095675755159e-05 -9.9508710688366118e-05 -1.5080276499768175e-08 
93 2 30.427856210000012 4.7543455700000008 0.7909382399999999 -0.00010886276168391856 -0.00026059213665937352 1.1905841749714803 
94 2 28.52600537 8.5578014700000011 4.05899491 0.00010897096833668851 0.00026074251271849852 -1.1905841750635684 
95 2 30.427799569999998 6.6561177900000006 3.215904689999999 -0.00026100313522703367 -0.00010899592628214536 1.1905836026912491 
96 2 28.526062000000003 6.6560292499999996 1.6340284599999999 0.0002611933648662048 0.00010912894907806549 -1.1905836028266146 
97 1 3.8033263700000002 10.459695029999999 1.21248333 -9.9467532034713813e-05 9.9225311804901546e-05 1.5307700329536544e-08 
98 1 1.9018554499999993 10.459405769999998 3.6374498200000001 9.9169095666873375e-05 -9.9508710671669946e-05 -1.5080279913703976e-08 
99 2 3.8035162800000006 8.5578224000000009 0.7909382399999999 -0.00010886276162894171 -0.00026059213666716622 1.1905841749715007 
100 2 1.9016654399999997 12.3612783 4.05899491 0.00010897096834987241 0.0002607425127355515 -1.1905841750635897 
101 2 3.8034596399999998 10.459594619999999 3.215904689999999 -0.00026100313523552514 -0.00010899592629816813 1.19058360269125 
102 2 1.9017220699999999 10.459506080000001 1.6340284599999999 0.00026119336492524958 0.00010912894908617521 -1.1905836028265968 
103 1 7.6068032000000008 10.459695029999999 1.21248333 -9.9467532046124824e-05 9.9225311803714019e-05 1.5307693799170019e-08 
104 1 5.7053322800000004 10.459405769999998 3.6374498200000001 9.9169095685618797e-05 -9.9508710666609812e-05 -1.508028678320894e-08 
105 2 7.6069931100000003 8.5578224000000009 0.7909382399999999 -0.00010886276163068163 -0.00026059213667848377 1.1905841749714998 
106 2 5.7051422699999979 12.3612783 4.05899491 0.00010897096837026582 0.00026074251274079579 -1.190584175063593 
107 2 7.6069364700000008 10.459594619999999 3.215904689999999 -0.00026100313524957813 -0.00010899592629229121 1.1905836026912675 
108 2 5.7051989000000001 10.459506080000001 1.6340284599999999 0.0002611933649083395 0.00010912894909122705 -1.1905836028266041 
109 1 11.410280029999999 10.459695029999999 1.21248333 -9.9467532046135882e-05 9.9225311814488061e-05 1.5307706491274331e-08 
110 1 9.5088091100000014 10.459405769999998 3.6374498200000001 9.9169095669922327e-05 -9.9508710668812694e-05 -1.508028842867039e-08 
111 2 11.41046994 8.5578224000000009 0.7909382399999999 -0.0001088627616236152 -0.00026059213665593822 1.1905841749715151 
112 2 9.5086190999999989 12.3612783 4.05899491 0.00010897096835602027 0.00026074251272744785 -1.1905841750635937 
113 2 11.410413300000004 10.459594619999999 3.215904689999999 -0.00026100313526741499 -0.00010899592628671397 1.190583602691246 
114 2 9.5086757299999949 10.459506080000001 1.6340284599999999 0.00026119336496866884 0.00010912894909309925 -1.1905836028266032 
115 1 15.213756859999998 10.459695029999999 1.21248333 -9.9467532023415423e-05 9.9225311820877698e-05 1.5307725698132657e-08 
116 1 13.312285940000006 10.459405769999998 3.6374498200000001 9.9169095669995118e-05 -9.9508710670801853e-05 -1.5080269255562939e-08 
117 2 15.213946770000007 8.5578224000000009 0.7909382399999999 -0.00010886276164579765 -0.00026059213665140062 1.1905841749715085 
118 2 13.312095929999998 12.3612783 4.05899491 0.00010897096835603241 0.00026074251273389159 -1.1905841750635844 
119 2 15.213890129999998 10.459594619999999 3.215904689999999 -0.0002610031352072344 -0.00010899592628567834 1.1905836026912273 
120 2 13.312152559999999 10.459506080000001 1.6340284599999999 0.00026119336492104721 0.00010912894908256883 -1.1905836028266255 
121 1 19.017233690000005 10.459695029999999 1.21248333 -9.9467532037226654e-05 9.9225311813314955e-05 1.5307692668997674e-08 
122 1 17.11576277 10.459405769999998 3.6374498200000001 9.9169095661593473e-05 -9.9508710657506959e-05 -1.5080266257960773e-08 
123 2 19.017423600000008 8.5578224000000009 0.7909382399999999 -0.00010886276167796052 -0.00026059213668361096 1.190584174971516 
124 2 17.11557276000001 12.3612783 4.05899491 0.00010897096832209515 0.00026074251272154405 -1.1905841750635948 
125 2 19.017366960000007 10.459594619999999 3.215904689999999 -0.00026100313529650761 -0.00010899592629480992 1.190583602691256 
126 2 17.115629390000002 10.459506080000001 1.6340284599999999 0.00026119336490408162 0.00010912894909699653 -1.1905836028265993 
127 1 22.820710520000006 10.459695029999999 1.21248333 -9.9467532012326379e-05 9.922531181367533e-05 1.5307692886205721e-08 
128 1 20.919239600000001 10.459405769999998 3.6374498200000001 9.9169095702781853e-05 -9.9508710675973145e-05 -1.5080283521928806e-08 
129 2 22.820900430000009 8.5578224000000009 0.7909382399999999 -0.00010886276166445844 -0.00026059213666509946 1.1905841749714876 
130 2 20.919049590000011 12.3612783 4.05899491 0.00010897096829963655 0.00026074251273498989 -1.1905841750635779 
131 2 22.820843790000005 10.459594619999999 3.215904689999999 -0.00026100313527259271 -0.00010899592629318947 1.1905836026912537 
132 2 20.919106220000003 10.459506080000001 1.6340284599999999 0.00026119336489538372 0.00010912894909814665 -1.1905836028266188 
133 1 26.62418735 10.459695029999999 1.21248333 -9.9467532035549949e-05 9.9225311826806861e-05 1.5307704714917492e-08 
134 1 24.722716430000002 10.459405769999998 3.6374498200000001 9.9169095675184435e-05 -9.9508710666352585e-05 -1.5080287438067053e-08 
135 2 26.624377259999999 8.5578224000000009 0.7909382399999999 -0.00010886276160899933 -0.00026059213666162692 1.1905841749714956 
136 2 24.722526420000008 12.3612783 4.05899491 0.00010897096829714202 0.00026074251273241751 -1.1905841750635631 
137 2 26.624320619999999 10.459594619999999 3.215904689999999 -0.00026100313520497492 -0.00010899592628893525 1.1905836026912433 
138 2 24.722583050000004 10.459506080000001 1.6340284599999999 0.00026119336488415051 0.00010912894910171064 -1.1905836028266044 
139 1 30.427664180000001 10.459695029999999 1.21248333 -9.9467532014452242e-05 9.9225311807819676e-05 1.5307722978086247e-08 
140 1 28.526193260000003 10.459405769999998 3.6374498200000001 9.9169095688300679e-05 -9.9508710671506395e-05 -1.5080272641743164e-08 
141 2 30.427854089999997 8.5578224000000009 0.7909382399999999 -0.00010886276162025421 -0.00026059213666160253 1.1905841749715034 
142 2 28.526003250000016 12.3612783 4.05899491 0.00010897096828024061 0.00026074251274073334 -1.190584175063587 
143 2 30.42779745 10.459594619999999 3.215904689999999 -0.00026100313521515428 -0.00010899592629879466 1.1905836026912493 
144 2 28.526059880000005 10.459506080000001 1.6340284599999999 0.00026119336485325162 0.00010912894908234484 -1.1905836028266024 
145 1 3.8033242500000002 14.26317186 1.21248333 -9.9467532051977781e-05 9.9225311809857e-05 1.5307698580935281e-08 
146 1 1.9018533300000002 14.262882600000003 3.6374498200000001 9.9169095677642538e-05 -9.950871067543511e-05 -1.5080300230785326e-08 
147 2 3.8035141600000006 12.36129923 0.7909382399999999 -0.00010886276161607006 -0.0002605921366572629 1.1905841749715096 
148 2 1.9016633199999997 16.16475513 4.05899491 0.0001089709683643747 0.00026074251275783446 -1.1905841750635793 
149 2 3.8034575199999998 14.263071450000004 3.215904689999999 -0.00026100313522860706 -0.00010899592631566151 1.1905836026912464 
150 2 1.9017199499999999 14.26298291 1.6340284599999999 0.00026119336491514655 0.00010912894908686032 -1.1905836028265981 
151 1 7.6068010800000012 14.26317186 1.21248333 -9.9467532050182342e-05 9.9225311807287441e-05 1.5307707984871244e-08 
152 1 5.7053301599999999 14.262882600000003 3.6374498200000001 9.9169095693778936e-05 -9.9508710670748185e-05 -1.5080295734382076e-08 
153 2 7.6069909899999999 12.36129923 0.7909382399999999 -0.00010886276163547121 -0.00026059213664800452 1.1905841749715134 
154 2 5.7051401499999992 16.16475513 4.05899491 0.00010897096835450412 0.00026074251274541623 -1.1905841750635857 
155 2 7.6069343499999995 14.263071450000004 3.215904689999999 -0.0002610031352447556 -0.00010899592632102029 1.1905836026912573 
156 2 5.7051967799999996 14.26298291 1.6340284599999999 0.00026119336491040729 0.00010912894908841119 -1.1905836028266115 
157 1 11.41027791 14.26317186 1.21248333 -9.9467532042477811e-05 9.9225311795927171e-05 1.5307725698132657e-08 
158 1 9.5088069900000001 14.262882600000003 3.6374498200000001 9.9169095681516067e-05 -9.950871067393063e-05 -1.5080296584001862e-08 
159 2 11.410467820000004 12.36129923 0.7909382399999999 -0.00010886276164687422 -0.00026059213665198826 1.1905841749715182 
160 2 9.5086169799999993 16.16475513 4.05899491 0.00010897096834670654 0.0002607425127571558 -1.1905841750635848 
161 2 11.410411180000001 14.263071450000004 3.215904689999999 -0.0002610031352497876 -0.00010899592632344847 1.1905836026912273 
162 2 9.5086736099999953 14.26298291 1.6340284599999999 0.00026119336495777218 0.00010912894908809805 -1.1905836028266197 
163 1 15.213754739999995 14.26317186 1.21248333 -9.9467532045099223e-05 9.9225311800266798e-05 1.5307711431766791e-08 
164 1 13.312283820000001 14.262882600000003 3.6374498200000001 9.9169095663590668e-05 -9.9508710676356424e-05 -1.5080273862988491e-08 
165 2 15.21394465 12.36129923 0.7909382399999999 -0.00010886276162126534 -0.00026059213664453507 1.1905841749715302 
166 2 13.31209381 16.16475513 4.05899491 0.00010897096834380261 0.00026074251274662489 -1.1905841750635808 
167 2 15.213888009999998 14.263071450000004 3.215904689999999 -0.00026100313520495107 -0.00010899592632950135 1.1905836026912229 
168 2 13.31215044 14.26298291 1.6340284599999999 0.0002611933649081296 0.00010912894908678554 -1.1905836028266148 
169 1 19.017231570000014 14.26317186 1.21248333 -9.9467532049586478e-05 9.9225311796405737e-05 1.5307713541190537e-08 
170 1 17.115760650000006 14.262882600000003 3.6374498200000001 9.9169095680617209e-05 -9.9508710689181045e-05 -1.5080260817867952e-08 
171 2 19.017421480000007 12.36129923 0.7909382399999999 -0.00010886276166387442 -0.00026059213665456063 1.1905841749715165 
172 2 17.115570640000001 16.16475513 4.05899491 0.00010897096835395075 0.00026074251274812977 -1.1905841750635937 
173 2 19.017364839999999 14.263071450000004 3.215904689999999 -0.00026100313518867763 -0.00010899592631464345 1.1905836026912338 
174 2 17.115627270000012 14.26298291 1.6340284599999999 0.00026119336481959972 0.00010912894909252682 -1.1905836028266483 
175 1 22.820708400000008 14.26317186 1.21248333 -9.9467532049621362e-05 9.9225311796251361e-05 1.5307725239950513e-08 
176 1 20.91923748 14.262882600000003 3.6374498200000001 9.9169095697508171e-05 -9.9508710673816572e-05 -1.5080291293489978e-08 
177 2 22.820898310000008 12.36129923 0.7909382399999999 -0.00010886276166431966 -0.00026059213664406615 1.1905841749715176 
178 2 20.919047470000002 16.16475513 4.05899491 0.00010897096833224068 0.00026074251274729038 -1.1905841750635751 
179 2 22.82084167 14.263071450000004 3.215904689999999 -0.00026100313521889478 -0.0001089959263063827 1.1905836026912495 
180 2 20.919104100000013 14.26298291 1.6340284599999999 0.00026119336480589714 0.00010912894909871024 -1.1905836028266061 
181 1 26.624185230000009 14.26317186 1.21248333 -9.9467532046104007e-05 9.9225311788472752e-05 1.5307710196643676e-08 
182 1 24.722714310000001 14.262882600000003 3.6374498200000001 9.9169095691374609e-05 -9.9508710682574188e-05 -1.5080285529003867e-08 
183 2 26.624375140000005 12.36129923 0.7909382399999999 -0.00010886276163310504 -0.0002605921366507933 1.1905841749715089 
184 2 24.7225243 16.16475513 4.05899491 0.00010897096831906199 0.00026074251274482794 -1.1905841750635744 
185 2 26.62431849999999 14.263071450000004 3.215904689999999 -0.0002610031351098635 -0.00010899592631807766 1.1905836026912329 
186 2 24.722580930000014 14.26298291 1.6340284599999999 0.00026119336479631106 0.00010912894909352537 -1.1905836028266448 
187 1 30.42766206000001 14.26317186 1.21248333 -9.9467532040431461e-05 9.9225311799851603e-05 1.5307729528402092e-08 
188 1 28.526191140000002 14.262882600000003 3.6374498200000001 9.9169095695239573e-05 -9.950871066758985e-05 -1.508029906505115e-08 
189 2 30.427851969999999 12.36129923 0.7909382399999999 -0.00010886276162136443 -0.00026059213666504519 1.1905841749715012 
190 2 28.526001130000008 16.16475513 4.05899491 0.00010897096831453956 0.00026074251275786113 -1.1905841750635959 
191 2 30.427795329999999 14.263071450000004 3.215904689999999 -0.00026100313520660556 -0.00010899592631509296 1.1905836026912577 
192 2 28.526057760000015 14.26298291 1.6340284599999999 0.00026119336478458433 0.00010912894911519402 -1.1905836028266066 
193 1 3.8033221300000002 18.066648690000005 1.21248333 -9.9467532035990569e-05 9.9225311801937228e-05 1.5307717399215548e-08 
194 1 1.9018512100000002 18.066359430000002 3.6374498200000001 9.9169095692130949e-05 -9.9508710689484581e-05 -1.5080282023127722e-08 
195 2 3.8035120400000024 16.164776060000005 0.7909382399999999 -0.00010886276162883068 -0.00026059213668822674 1.1905841749715007 
196 2 1.9016611999999993 19.968231960000001 4.05899491 0.00010897096834584091 0.00026074251276029733 -1.1905841750635759 
197 2 3.8034553999999998 18.066548279999999 3.215904689999999 -0.00026100313524197484 -0.00010899592627236021 1.1905836026912531 
198 2 1.9017178299999997 18.066459739999999 1.6340284599999999 0.00026119336492813616 0.00010912894912263639 -1.1905836028266179 
199 1 7.6067989600000008 18.066648690000005 1.21248333 -9.9467532039617876e-05 9.9225311804262273e-05 1.530771322807295e-08 
200 1 5.7053280400000004 18.066359430000002 3.6374498200000001 9.9169095680931574e-05 -9.9508710680505652e-05 -1.5080288753854809e-08 
201 2 7.6069888700000012 16.164776060000005 0.7909382399999999 -0.00010886276163137205 -0.00026059213668595837 1.190584174971498 
202 2 5.7051380299999979 19.968231960000001 4.05899491 0.00010897096835266878 0.00026074251275079365 -1.1905841750635824 
203 2 7.60693223 18.066548279999999 3.215904689999999 -0.00026100313523538116 -0.00010899592627421073 1.1905836026912613 
204 2 5.7051946600000001 18.066459739999999 1.6340284599999999 0.00026119336491561146 0.00010912894911492728 -1.1905836028266161 
205 1 11.41027579 18.066648690000005 1.21248333 -9.94675320407294e-05 9.9225311807324412e-05 1.5307740644510126e-08 
206 1 9.5088048700000058 18.066359430000002 3.6374498200000001 9.9169095666558726e-05 -9.9508710677956462e-05 -1.508028824823882e-08 
207 2 11.410465700000001 16.164776060000005 0.7909382399999999 -0.00010886276163444504 -0.00026059213669757646 1.190584174971508 
208 2 9.5086148600000016 19.968231960000001 4.05899491 0.00010897096834038694 0.00026074251275156886 -1.1905841750635833 
209 2 11.410409060000003 18.066548279999999 3.215904689999999 -0.00026100313525687189 -0.00010899592628295374 1.1905836026912442 
210 2 9.5086714899999993 18.066459739999999 1.6340284599999999 0.00026119336492989029 0.00010912894911828397 -1.1905836028266137 
211 1 15.213752619999999 18.066648690000005 1.21248333 -9.946753202437791e-05 9.9225311791933946e-05 1.5307751819598758e-08 
212 1 13.312281700000007 18.066359430000002 3.6374498200000001 9.9169095673233372e-05 -9.9508710676484563e-05 -1.5080271881934282e-08 
213 2 15.213942529999995 16.164776060000005 0.7909382399999999 -0.00010886276159390794 -0.0002605921367123459 1.1905841749715032 
214 2 13.312091689999999 19.968231960000001 4.05899491 0.00010897096834676986 0.00026074251276093918 -1.1905841750635782 
215 2 15.213885889999998 18.066548279999999 3.215904689999999 -0.00026100313522287001 -0.00010899592628184351 1.1905836026912304 
216 2 13.31214832 18.066459739999999 1.6340284599999999 0.00026119336491647768 0.00010912894911506432 -1.1905836028266275 
217 1 19.017229450000002 18.066648690000005 1.21248333 -9.9467532058824219e-05 9.922531180125288e-05 1.5307721628471382e-08 
218 1 17.115758529999997 18.066359430000002 3.6374498200000001 9.9169095679736417e-05 -9.9508710674947598e-05 -1.5080289501520627e-08 
219 2 19.017419359999998 16.164776060000005 0.7909382399999999 -0.0001088627616304278 -0.00026059213668561468 1.190584174971506 
220 2 17.11556852 19.968231960000001 4.05899491 0.00010897096836406017 0.0002607425127480606 -1.1905841750635924 
221 2 19.017362720000005 18.066548279999999 3.215904689999999 -0.00026100313528634793 -0.0001089959262790402 1.1905836026912535 
222 2 17.11562515 18.066459739999999 1.6340284599999999 0.00026119336491982575 0.00010912894910827808 -1.1905836028266161 
223 1 22.820706280000003 18.066648690000005 1.21248333 -9.9467532002454326e-05 9.9225311812011987e-05 1.5307720046151156e-08 
224 1 20.919235359999998 18.066359430000002 3.6374498200000001 9.9169095696198794e-05 -9.9508710674659634e-05 -1.5080269531383972e-08 
225 2 22.820896190000006 16.164776060000005 0.7909382399999999 -0.00010886276164633578 -0.00026059213666827411 1.1905841749714998 
226 2 20.919045350000001 19.968231960000001 4.05899491 0.00010897096831878486 0.00026074251275809424 -1.1905841750635733 
227 2 22.820839550000006 18.066548279999999 3.215904689999999 -0.00026100313528613949 -0.0001089959262847856 1.1905836026912373 
228 2 20.919101980000001 18.066459739999999 1.6340284599999999 0.00026119336491269344 0.00010912894910315718 -1.1905836028266308 
229 1 26.624183109999997 18.066648690000005 1.21248333 -9.9467532005705767e-05 9.9225311800864302e-05 1.5307734899105974e-08 
230 1 24.722712190000006 18.066359430000002 3.6374498200000001 9.9169095685523387e-05 -9.9508710679297431e-05 -1.5080293143572565e-08 
231 2 26.624373019999997 16.164776060000005 0.7909382399999999 -0.00010886276161223632 -0.00026059213670312845 1.1905841749714945 
232 2 24.722522179999999 19.968231960000001 4.05899491 0.00010897096832691855 0.00026074251276210687 -1.1905841750635728 
233 2 26.624316379999996 18.066548279999999 3.215904689999999 -0.00026100313518881424 -0.00010899592628305305 1.1905836026912431 
234 2 24.722578810000009 18.066459739999999 1.6340284599999999 0.00026119336483854116 0.00010912894911197848 -1.190583602826629 
235 1 30.427659939999998 18.066648690000005 1.21248333 -9.9467532015451443e-05 9.9225311802682292e-05 1.5307733747249586e-08 
236 1 28.52618902 18.066359430000002 3.6374498200000001 9.9169095682249964e-05 -9.9508710693800573e-05 -1.5080296733582799e-08 
237 2 30.427849850000012 16.164776060000005 0.7909382399999999 -0.00010886276166664072 -0.00026059213668083031 1.190584174971494 
238 2 28.52599901 19.968231960000001 4.05899491 0.00010897096835329328 0.00026074251274957197 -1.1905841750635837 
239 2 30.427793210000004 18.066548279999999 3.215904689999999 -0.00026100313528154562 -0.00010899592626511384 1.1905836026912591 
240 2 28.526055640000003 18.066459739999999 1.6340284599999999 0.00026119336487885961 0.00010912894910061234 -1.1905836028265988 
241 1 3.8033200100000002 21.870125520000009 1.21248333 -9.9467532040042883e-05 9.9225311777501046e-05 1.5307700107491939e-08 
242 1 1.9018490900000002 21.869836260000003 3.6374498200000001 9.916909567869725e-05 -9.9508710674101053e-05 -1.5080262039113279e-08 
243 2 3.8035099200000007 19.968252890000002 0.7909382399999999 -0.00010886276162488939 -0.00026059213664954284 1.1905841749715063 
244 2 1.9016590799999993 23.771708790000002 4.05899491 0.00010897096834555642 0.00026074251270374882 -1.1905841750635469 
245 2 3.8034532799999998 21.87002511 3.215904689999999 -0.00026100313524239811 -0.00010899592630779498 1.1905836026912595 
246 2 1.9017157099999997 21.869936570000004 1.6340284599999999 0.00026119336492491652 0.00010912894906527255 -1.1905836028265953 
247 1 7.6067968400000012 21.870125520000009 1.21248333 -9.9467532056116831e-05 9.9225311774572237e-05 1.5307707788847491e-08 
248 1 5.7053259199999999 21.869836260000003 3.6374498200000001 9.9169095693456277e-05 -9.9508710672907563e-05 -1.508026083174574e-08 
249 2 7.6069867500000008 19.968252890000002 0.7909382399999999 -0.0001088627616304353 -0.00026059213664594676 1.1905841749715069 
250 2 5.7051359099999992 23.771708790000002 4.05899491 0.00010897096836197731 0.00026074251271355348 -1.1905841750635529 
251 2 7.6069301100000004 21.87002511 3.215904689999999 -0.00026100313524194535 -0.00010899592630393337 1.1905836026912553 
252 2 5.7051925399999996 21.869936570000004 1.6340284599999999 0.0002611933649163331 0.00010912894907644244 -1.190583602826611 
253 1 11.41027367 21.870125520000009 1.21248333 -9.9467532030420264e-05 9.9225311772865865e-05 1.5307714068546474e-08 
254 1 9.508802750000001 21.869836260000003 3.6374498200000001 9.9169095679945763e-05 -9.9508710673335173e-05 -1.5080263347289598e-08 
255 2 11.410463580000005 19.968252890000002 0.7909382399999999 -0.00010886276164690755 -0.00026059213665237391 1.1905841749715045 
256 2 9.5086127400000002 23.771708790000002 4.05899491 0.00010897096835154121 0.00026074251271432033 -1.1905841750635524 
257 2 11.410406940000001 21.87002511 3.215904689999999 -0.00026100313524820033 -0.00010899592629981525 1.1905836026912526 
258 2 9.5086693699999998 21.869936570000004 1.6340284599999999 0.00026119336491404761 0.00010912894907569304 -1.1905836028266112 
259 1 15.2137505 21.870125520000009 1.21248333 -9.9467532045358577e-05 9.9225311776751646e-05 1.5307705075739975e-08 
260 1 13.312279580000002 21.869836260000003 3.6374498200000001 9.9169095685107677e-05 -9.9508710665108246e-05 -1.5080264481603933e-08 
261 2 15.213940410000003 19.968252890000002 0.7909382399999999 -0.00010886276163708509 -0.00026059213665520498 1.1905841749714934 
262 2 13.312089570000001 23.771708790000002 4.05899491 0.00010897096833569885 0.00026074251271746007 -1.1905841750635464 
263 2 15.213883769999999 21.87002511 3.215904689999999 -0.00026100313522164171 -0.00010899592630983501 1.1905836026912537 
264 2 13.312146200000004 21.869936570000004 1.6340284599999999 0.00026119336488623131 0.00010912894907558202 -1.1905836028266203 
265 1 19.017227330000004 21.870125520000009 1.21248333 -9.9467532050659865e-05 9.9225311786299564e-05 1.5307686895837946e-08 
266 1 17.115756409999999 21.869836260000003 3.6374498200000001 9.9169095682570711e-05 -9.9508710663998023e-05 -1.5080257653732332e-08 
267 2 19.017417240000011 19.968252890000002 0.7909382399999999 -0.00010886276168217893 -0.00026059213665015346 1.190584174971508 
268 2 17.115566400000002 23.771708790000002 4.05899491 0.0001089709683437844 0.00026074251271168691 -1.1905841750635551 
269 2 19.0173606 21.87002511 3.215904689999999 -0.00026100313522490776 -0.00010899592630464472 1.1905836026912728 
270 2 17.115623030000002 21.869936570000004 1.6340284599999999 0.0002611933649078876 0.00010912894906073278 -1.1905836028266232 
271 1 22.820704160000005 21.870125520000009 1.21248333 -9.946753202822039e-05 9.9225311768983906e-05 1.5307707119674522e-08 
272 1 20.919233240000008 21.869836260000003 3.6374498200000001 9.916909570000494e-05 -9.9508710671214473e-05 -1.5080259041511113e-08 
273 2 22.820894070000012 19.968252890000002 0.7909382399999999 -0.00010886276168988428 -0.00026059213667457192 1.1905841749714925 
274 2 20.91904323000001 23.771708790000002 4.05899491 0.00010897096828521059 0.00026074251271368531 -1.190584175063546 
275 2 22.820837430000001 21.87002511 3.215904689999999 -0.00026100313524105414 -0.0001089959263120277 1.1905836026912473 
276 2 20.919099860000003 21.869936570000004 1.6340284599999999 0.00026119336489159335 0.00010912894907341708 -1.1905836028266135 
277 1 26.624180989999999 21.870125520000009 1.21248333 -9.9467532023986283e-05 9.9225311778153302e-05 1.5307694972710451e-08 
278 1 24.722710070000005 21.869836260000003 3.6374498200000001 9.9169095669376581e-05 -9.9508710661843063e-05 -1.5080275208266547e-08 
279 2 26.624370900000006 19.968252890000002 0.7909382399999999 -0.00010886276164848163 -0.00026059213664888017 1.1905841749714847 
280 2 24.722520060000008 23.771708790000002 4.05899491 0.0001089709683014875 0.00026074251270921341 -1.1905841750635511 
281 2 26.624314259999998 21.87002511 3.215904689999999 -0.00026100313521885271 -0.00010899592630187263 1.1905836026912493 
282 2 24.722576690000004 21.869936570000004 1.6340284599999999 0.00026119336489257433 0.00010912894907993791 -1.1905836028265999 
283 1 30.42765782 21.870125520000009 1.21248333 -9.9467532042429863e-05 9.9225311775474889e-05 1.5307721645818617e-08 
284 1 28.526186900000003 21.869836260000003 3.6374498200000001 9.9169095688522724e-05 -9.9508710657517097e-05 -1.5080276832835082e-08 
285 2 30.42784773 19.968252890000002 0.7909382399999999 -0.00010886276163078051 -0.00026059213663852387 1.1905841749715096 
286 2 28.525996890000009 23.771708790000002 4.05899491 0.00010897096832103437 0.00026074251271166957 -1.1905841750635564 
287 2 30.427791089999999 21.87002511 3.215904689999999 -0.00026100313523158558 -0.00010899592631213872 1.1905836026912529 
288 2 28.526053519999998 21.869936570000004 1.6340284599999999 0.00026119336492680389 0.00010912894908769732 -1.190583602826601 
289 1 5.7050460899999997 4.7544579099999993 6.0624161099999991 -9.9467532036379147e-05 9.9225311811959593e-05 1.530768073410016e-08 
290 1 3.8035751700000002 4.7541686500000004 8.4873826000000001 9.9169095681694852e-05 -9.9508710673434919e-05 -1.5080276694057204e-08 
291 2 5.705236000000002 2.8525852800000004 5.6408710199999987 -0.00010886276162454245 -0.00026059213665470191 1.1905841749714994 
292 2 3.8033851599999986 6.656041179999999 8.9089276899999987 0.00010897096835109366 0.00026074251276964056 -1.1905841750635773 
293 2 5.7051793599999989 4.7543575000000002 8.0658374699999982 -0.00026100313522535445 -0.00010899592628811627 1.1905836026912464 
294 2 3.8034417900000004 4.754268960000001 6.4839612400000002 0.00026119336488528155 0.00010912894907670612 -1.1905836028266379 
295 1 9.5085229200000008 4.7544579099999993 6.0624161099999991 -9.9467532044206219e-05 9.9225311821798511e-05 1.5307678923916213e-08 
296 1 7.6070520000000004 4.7541686500000004 8.4873826000000001 9.9169095675706587e-05 -9.9508710674524326e-05 -1.5080284299084923e-08 
297 2 9.5087128300000003 2.8525852800000004 5.6408710199999987 -0.0001088627616288914 -0.00026059213665540035 1.1905841749715018 
298 2 7.6068619899999987 6.656041179999999 8.9089276899999987 0.00010897096834926526 0.00026074251275725463 -1.1905841750635866 
299 2 9.5086561899999964 4.7543575000000002 8.0658374699999982 -0.00026100313520704965 -0.0001089959262957638 1.190583602691248 
300 2 7.6069186200000001 4.754268960000001 6.4839612400000002 0.00026119336490690315 0.00010912894907615447 -1.1905836028266195 
301 1 13.31199975 4.7544579099999993 6.0624161099999991 -9.9467532041665148e-05 9.9225311812833894e-05 1.5307691947352708e-08 
302 1 11.410528830000001 4.7541686500000004 8.4873826000000001 9.9169095676215023e-05 -9.9508710673890298e-05 -1.508028243254618e-08 
303 2 13.312189660000001 2.8525852800000004 5.6408710199999987 -0.00010886276163807015 -0.00026059213665596825 1.1905841749715049 
304 2 11.410338819999996 6.656041179999999 8.9089276899999987 0.00010897096836692995 0.00026074251275029828 -1.1905841750635822 
305 2 13.312133020000001 4.7543575000000002 8.0658374699999982 -0.00026100313525200761 -0.00010899592628462601 1.1905836026912446 
306 2 11.410395450000001 4.754268960000001 6.4839612400000002 0.00026119336490016705 0.00010912894907746939 -1.1905836028266021 
307 1 17.115476579999999 4.7544579099999993 6.0624161099999991 -9.9467532056597376e-05 9.9225311816941719e-05 1.5307672740494382e-08 
308 1 15.214005660000002 4.7541686500000004 8.4873826000000001 9.9169095668742214e-05 -9.9508710683426926e-05 -1.5080281051682576e-08 
309 2 17.115666490000002 2.8525852800000004 5.6408710199999987 -0.00010886276163034697 -0.00026059213664897385 1.190584174971498 
310 2 15.213815649999999 6.656041179999999 8.9089276899999987 0.00010897096835029547 0.00026074251275420152 -1.1905841750635862 
311 2 17.115609849999998 4.7543575000000002 8.0658374699999982 -0.00026100313521934537 -0.00010899592628448029 1.1905836026912575 
312 2 15.213872280000004 4.754268960000001 6.4839612400000002 0.00026119336488316497 0.00010912894908218784 -1.1905836028266101 
313 1 20.918953410000015 4.7544579099999993 6.0624161099999991 -9.9467532050842377e-05 9.9225311824602258e-05 1.5307675294007339e-08 
314 1 19.017482490000006 4.7541686500000004 8.4873826000000001 9.9169095669287893e-05 -9.950871067443412e-05 -1.508026906127391e-08 
315 2 20.919143320000007 2.8525852800000004 5.6408710199999987 -0.00010886276167854168 -0.00026059213666296266 1.1905841749715098 
316 2 19.017292480000002 6.656041179999999 8.9089276899999987 0.00010897096834461121 0.00026074251272834113 -1.1905841750635993 
317 2 20.919086680000007 4.7543575000000002 8.0658374699999982 -0.00026100313528303488 -0.00010899592628841465 1.1905836026912435 
318 2 19.017349110000005 4.754268960000001 6.4839612400000002 0.00026119336489959568 0.00010912894907175175 -1.1905836028266221 
319 1 24.722430240000008 4.7544579099999993 6.0624161099999991 -9.9467532059009889e-05 9.922531180406694e-05 1.5307692335032912e-08 
320 1 22.82095932 4.7541686500000004 8.4873826000000001 9.9169095683548621e-05 -9.9508710674989231e-05 -1.5080287629753997e-08 
321 2 24.722620150000008 2.8525852800000004 5.6408710199999987 -0.00010886276167487718 -0.00026059213666503424 1.190584174971504 
322 2 22.820769310000003 6.656041179999999 8.9089276899999987 0.00010897096832974723 0.00026074251276361976 -1.1905841750635802 
323 2 24.722563510000004 4.7543575000000002 8.0658374699999982 -0.00026100313528045968 -0.00010899592628325211 1.1905836026912686 
324 2 22.820825940000006 4.754268960000001 6.4839612400000002 0.00026119336488894177 0.00010912894907882942 -1.1905836028266024 
325 1 28.525907070000002 4.7544579099999993 6.0624161099999991 -9.9467532041604134e-05 9.9225311814790662e-05 1.5307691891841557e-08 
326 1 26.624436150000001 4.7541686500000004 8.4873826000000001 9.9169095675213925e-05 -9.950871068425382e-05 -1.5080273908091302e-08 
327 2 28.526096979999998 2.8525852800000004 5.6408710199999987 -0.00010886276162593023 -0.00026059213666024955 1.190584174971504 
328 2 26.62424614 6.656041179999999 8.9089276899999987 0.00010897096832247766 0.00026074251275603642 -1.1905841750635744 
329 2 28.526040339999998 4.7543575000000002 8.0658374699999982 -0.00026100313521697921 -0.00010899592628223903 1.1905836026912389 
330 2 26.62430277 4.754268960000001 6.4839612400000002 0.00026119336492688022 0.00010912894908743191 -1.1905836028266004 
331 1 32.329383899999996 4.7544579099999993 6.0624161099999991 -9.9467532014119175e-05 9.9225311810058336e-05 1.5307689005261693e-08 
332 1 30.427912979999999 4.7541686500000004 8.4873826000000001 9.9169095693574238e-05 -9.9508710678014589e-05 -1.5080281662305239e-08 
333 2 32.329573809999999 2.8525852800000004 5.6408710199999987 -0.00010886276161312797 -0.00026059213665458048 1.190584174971498 
334 2 30.427722970000008 6.656041179999999 8.9089276899999987 0.00010897096831631592 0.0002607425127685338 -1.1905841750635773 
335 2 32.329517170000003 4.7543575000000002 8.0658374699999982 -0.00026100313527377406 -0.00010899592628637982 1.19058360269125 
336 2 30.427779600000001 4.754268960000001 6.4839612400000002 0.00026119336489414252 0.00010912894906691881 -1.1905836028265848 
337 1 5.7050439700000002 8.5579347400000003 6.0624161099999991 -9.9467532037211814e-05 9.9225311799079272e-05 1.530769225266404e-08 
338 1 3.8035730500000002 8.5576454800000015 8.4873826000000001 9.9169095674978003e-05 -9.9508710673261447e-05 -1.5080289461621987e-08 
339 2 5.7052338799999998 6.6560621100000006 5.6408710199999987 -0.00010886276161661129 -0.00026059213664699887 1.1905841749715018 
340 2 3.803383039999999 10.459518010000002 8.9089276899999987 0.00010897096834373843 0.00026074251272001359 -1.19058417506356 
341 2 5.7051772399999994 8.5578343300000004 8.0658374699999982 -0.00026100313524268261 -0.00010899592627316816 1.1905836026912608 
342 2 3.8034396700000004 8.5577457900000002 6.4839612400000002 0.00026119336490681988 0.00010912894908859418 -1.190583602826597 
343 1 9.5085207999999994 8.5579347400000003 6.0624161099999991 -9.9467532053429744e-05 9.9225311806395332e-05 1.5307688056367952e-08 
344 1 7.6070498800000008 8.5576454800000015 8.4873826000000001 9.9169095678620922e-05 -9.9508710673614463e-05 -1.5080295345804018e-08 
345 2 9.5087107099999972 6.6560621100000006 5.6408710199999987 -0.00010886276162229425 -0.00026059213665093127 1.1905841749715009 
346 2 7.6068598699999992 10.459518010000002 8.9089276899999987 0.00010897096833964795 0.00026074251272878782 -1.1905841750635671 
347 2 9.5086540699999986 8.5578343300000004 8.0658374699999982 -0.00026100313523599178 -0.00010899592628623486 1.1905836026912717 
348 2 7.6069164999999996 8.5577457900000002 6.4839612400000002 0.00026119336490963013 0.00010912894909277486 -1.1905836028266028 
349 1 13.31199763 8.5579347400000003 6.0624161099999991 -9.9467532046266664e-05 9.9225311813659622e-05 1.5307716700121987e-08 
350 1 11.410526710000003 8.5576454800000015 8.4873826000000001 9.9169095675503312e-05 -9.9508710673716812e-05 -1.5080282233235939e-08 
351 2 13.312187540000002 6.6560621100000006 5.6408710199999987 -0.00010886276163917334 -0.00026059213663159886 1.1905841749715225 
352 2 11.410336699999997 10.459518010000002 8.9089276899999987 0.00010897096837047919 0.00026074251271881782 -1.1905841750635737 
353 2 13.312130900000001 8.5578343300000004 8.0658374699999982 -0.00026100313525859046 -0.0001089959262930984 1.1905836026912435 
354 2 11.410393329999996 8.5577457900000002 6.4839612400000002 0.00026119336494718446 0.00010912894908451931 -1.1905836028266092 
355 1 17.115474460000001 8.5579347400000003 6.0624161099999991 -9.9467532033886282e-05 9.9225311809062605e-05 1.53077074939445e-08 
356 1 15.21400354 8.5576454800000015 8.4873826000000001 9.9169095680697169e-05 -9.9508710682941204e-05 -1.5080272548068097e-08 
357 2 17.115664370000005 6.6560621100000006 5.6408710199999987 -0.00010886276164168824 -0.00026059213664601788 1.1905841749715089 
358 2 15.213813529999996 10.459518010000002 8.9089276899999987 0.00010897096836408825 0.00026074251271518585 -1.1905841750635724 
359 2 17.115607730000001 8.5578343300000004 8.0658374699999982 -0.00026100313526372394 -0.00010899592627738874 1.1905836026912628 
360 2 15.213870160000003 8.5577457900000002 6.4839612400000002 0.00026119336489437134 0.00010912894908751691 -1.190583602826611 
361 1 20.918951290000003 8.5579347400000003 6.0624161099999991 -9.9467532052998476e-05 9.9225311798560589e-05 1.5307688975771394e-08 
362 1 19.017480369999998 8.5576454800000015 8.4873826000000001 9.9169095680704976e-05 -9.9508710683829382e-05 -1.5080291272673296e-08 
363 2 20.919141200000006 6.6560621100000006 5.6408710199999987 -0.000108862761676051 -0.00026059213663962022 1.1905841749715049 
364 2 19.017290360000001 10.459518010000002 8.9089276899999987 0.00010897096835400799 0.00026074251274118415 -1.1905841750635857 
365 2 20.919084559999998 8.5578343300000004 8.0658374699999982 -0.00026100313522989076 -0.00010899592627364174 1.1905836026912571 
366 2 19.01734699 8.5577457900000002 6.4839612400000002 0.00026119336491379504 0.00010912894909813342 -1.1905836028266195 
367 1 24.722428120000004 8.5579347400000003 6.0624161099999991 -9.9467532040458864e-05 9.9225311809413345e-05 1.5307709396465203e-08 
368 1 22.820957199999999 8.5576454800000015 8.4873826000000001 9.9169095699342194e-05 -9.9508710675405565e-05 -1.5080268686573639e-08 
369 2 24.722618030000007 6.6560621100000006 5.6408710199999987 -0.00010886276167462565 -0.00026059213662626735 1.1905841749715138 
370 2 22.820767190000002 10.459518010000002 8.9089276899999987 0.0001089709683372085 0.00026074251273092326 -1.1905841750635615 
371 2 24.722561389999999 8.5578343300000004 8.0658374699999982 -0.00026100313525453511 -0.00010899592627314214 1.1905836026912628 
372 2 22.820823820000001 8.5577457900000002 6.4839612400000002 0.00026119336489426439 0.00010912894910865278 -1.1905836028265941 
373 1 28.525904949999997 8.5579347400000003 6.0624161099999991 -9.9467532014885923e-05 9.9225311814452716e-05 1.5307692766142189e-08 
374 1 26.62443403 8.5576454800000015 8.4873826000000001 9.9169095675571278e-05 -9.9508710687480975e-05 -1.5080282922581845e-08 
375 2 28.526094860000004 6.6560621100000006 5.6408710199999987 -0.00010886276165278028 -0.00026059213663717946 1.1905841749715134 
376 2 26.624244019999999 10.459518010000002 8.9089276899999987 0.00010897096831877055 0.00026074251273773205 -1.1905841750635759 
377 2 28.52603821999999 8.5578343300000004 8.0658374699999982 -0.00026100313515537571 -0.00010899592628886394 1.1905836026912524 
378 2 26.624300650000002 8.5577457900000002 6.4839612400000002 0.00026119336488489298 0.00010912894909984082 -1.1905836028266064 
379 1 32.329381779999999 8.5579347400000003 6.0624161099999991 -9.9467532030328432e-05 9.9225311817918802e-05 1.5307694001265304e-08 
380 1 30.427910860000001 8.5576454800000015 8.4873826000000001 9.9169095695961218e-05 -9.9508710690001528e-05 -1.5080287601998421e-08 
381 2 32.329571689999995 6.6560621100000006 5.6408710199999987 -0.00010886276161262837 -0.00026059213664426928 1.1905841749715023 
382 2 30.427720850000007 10.459518010000002 8.9089276899999987 0.00010897096832187397 0.00026074251272635487 -1.1905841750635817 
383 2 32.329515049999998 8.5578343300000004 8.0658374699999982 -0.00026100313522359198 -0.00010899592628517071 1.1905836026912628 
384 2 30.427777480000003 8.5577457900000002 6.4839612400000002 0.00026119336485376857 0.0001091289491045391 -1.1905836028265802 
385 1 5.7050418500000006 12.36141157 6.0624161099999991 -9.9467532050145913e-05 9.9225311809320103e-05 1.5307695333532934e-08 
386 1 3.8035709299999985 12.361122310000001 8.4873826000000001 9.9169095689244369e-05 -9.9508710678917675e-05 -1.5080306225989659e-08 
387 2 5.7052317600000002 10.459538940000002 5.6408710199999987 -0.00010886276161999053 -0.00026059213666056153 1.1905841749715158 
388 2 3.8033809199999986 14.262994840000003 8.9089276899999987 0.00010897096835548598 0.00026074251270445138 -1.1905841750635484 
389 2 5.7051751199999998 12.361311160000001 8.0658374699999982 -0.00026100313524179963 -0.00010899592630655595 1.1905836026912715 
390 2 3.8034375500000004 12.361222620000001 6.4839612400000002 0.00026119336491858824 0.00010912894907668324 -1.1905836028265875 
391 1 9.5085186800000017 12.36141157 6.0624161099999991 -9.9467532044247853e-05 9.9225311811226239e-05 1.5307691877530089e-08 
392 1 7.6070477600000004 12.361122310000001 8.4873826000000001 9.916909567562332e-05 -9.9508710676517956e-05 -1.5080286311364155e-08 
393 2 9.5087085900000012 10.459538940000002 5.6408710199999987 -0.00010886276163673062 -0.00026059213667198761 1.1905841749715034 
394 2 7.6068577499999996 14.262994840000003 8.9089276899999987 0.00010897096834912301 0.00026074251271569196 -1.1905841750635568 
395 2 9.5086519500000009 12.361311160000001 8.0658374699999982 -0.00026100313526495472 -0.00010899592630639408 1.1905836026912799 
396 2 7.606914380000001 12.361222620000001 6.4839612400000002 0.00026119336489448253 0.00010912894907352203 -1.1905836028266144 
397 1 13.311995510000001 12.36141157 6.0624161099999991 -9.9467532063676065e-05 9.9225311819608314e-05 1.5307699136046793e-08 
398 1 11.410524590000001 12.361122310000001 8.4873826000000001 9.9169095668695173e-05 -9.9508710675901696e-05 -1.5080283279889141e-08 
399 2 13.312185420000002 10.459538940000002 5.6408710199999987 -0.00010886276164134895 -0.00026059213667145397 1.1905841749715176 
400 2 11.410334579999999 14.262994840000003 8.9089276899999987 0.00010897096835643834 0.00026074251270482516 -1.1905841750635557 
401 2 13.312128780000004 12.361311160000001 8.0658374699999982 -0.00026100313528230022 -0.00010899592631511204 1.1905836026912713 
402 2 11.410391209999995 12.361222620000001 6.4839612400000002 0.00026119336496022475 0.00010912894907348961 -1.1905836028266135 
403 1 17.115472340000004 12.36141157 6.0624161099999991 -9.9467532047654362e-05 9.922531181270238e-05 1.5307694417598938e-08 
404 1 15.214001420000006 12.361122310000001 8.4873826000000001 9.9169095659769682e-05 -9.9508710675022625e-05 -1.508026480946667e-08 
405 2 17.11566225 10.459538940000002 5.6408710199999987 -0.00010886276163467337 -0.00026059213665225584 1.1905841749715074 
406 2 15.213811409999995 14.262994840000003 8.9089276899999987 0.00010897096837257821 0.00026074251271222381 -1.1905841750635509 
407 2 17.115605609999996 12.361311160000001 8.0658374699999982 -0.00026100313521009322 -0.00010899592630577229 1.1905836026912342 
408 2 15.213868039999996 12.361222620000001 6.4839612400000002 0.00026119336495807538 0.00010912894906814168 -1.190583602826643 
409 1 20.918949170000005 12.36141157 6.0624161099999991 -9.9467532038569723e-05 9.9225311826779661e-05 1.5307692655119887e-08 
410 1 19.01747825 12.361122310000001 8.4873826000000001 9.9169095665962645e-05 -9.950871067788275e-05 -1.5080279049811685e-08 
411 2 20.919139080000001 10.459538940000002 5.6408710199999987 -0.0001088627616484363 -0.00026059213665390046 1.1905841749715285 
412 2 19.017288240000003 14.262994840000003 8.9089276899999987 0.0001089709683456952 0.00026074251270660374 -1.1905841750635628 
413 2 20.91908244 12.361311160000001 8.0658374699999982 -0.00026100313524764652 -0.00010899592630369669 1.1905836026912686 
414 2 19.017344870000002 12.361222620000001 6.4839612400000002 0.00026119336489292529 0.0001091289490766544 -1.1905836028266052 
415 1 24.722426000000006 12.36141157 6.0624161099999991 -9.9467532034434658e-05 9.9225311814594977e-05 1.530770706305884e-08 
416 1 22.820955080000001 12.361122310000001 8.4873826000000001 9.9169095680633201e-05 -9.9508710670173205e-05 -1.5080273835232916e-08 
417 2 24.722615910000009 10.459538940000002 5.6408710199999987 -0.0001088627616759371 -0.00026059213664957618 1.1905841749715265 
418 2 22.820765070000004 14.262994840000003 8.9089276899999987 0.00010897096831048031 0.00026074251270673905 -1.1905841750635524 
419 2 24.722559270000001 12.361311160000001 8.0658374699999982 -0.00026100313523644194 -0.00010899592630981593 1.1905836026912631 
420 2 22.820821700000003 12.361222620000001 6.4839612400000002 0.00026119336489079385 0.00010912894907538339 -1.190583602826613 
421 1 28.52590283 12.36141157 6.0624161099999991 -9.9467532033461342e-05 9.922531181725832e-05 1.5307700523825574e-08 
422 1 26.624431910000006 12.361122310000001 8.4873826000000001 9.9169095680130132e-05 -9.9508710669383039e-05 -1.5080299454496571e-08 
423 2 28.526092739999999 10.459538940000002 5.6408710199999987 -0.00010886276163948189 -0.00026059213668027515 1.1905841749715096 
424 2 26.624241900000008 14.262994840000003 8.9089276899999987 0.00010897096829381482 0.00026074251270274355 -1.190584175063558 
425 2 28.526036099999999 12.361311160000001 8.0658374699999982 -0.00026100313521469631 -0.00010899592632625661 1.1905836026912557 
426 2 26.624298530000011 12.361222620000001 6.4839612400000002 0.00026119336481327665 0.00010912894907063946 -1.1905836028265973 
427 1 32.329379660000015 12.36141157 6.0624161099999991 -9.9467532046204621e-05 9.9225311816549943e-05 1.5307673018050139e-08 
428 1 30.427908739999992 12.361122310000001 8.4873826000000001 9.9169095675533114e-05 -9.9508710652391775e-05 -1.5080287685265148e-08 
429 2 32.329569570000004 10.459538940000002 5.6408710199999987 -0.00010886276163796921 -0.00026059213666474395 1.1905841749715134 
430 2 30.427718730000009 14.262994840000003 8.9089276899999987 0.00010897096832778591 0.00026074251270777771 -1.1905841750635568 
431 2 32.32951293 12.361311160000001 8.0658374699999982 -0.00026100313522581242 -0.00010899592631002954 1.1905836026912922 
432 2 30.427775360000005 12.361222620000001 6.4839612400000002 0.00026119336486595673 0.00010912894906773228 -1.1905836028266206 
433 1 5.7050397300000002 16.164888399999999 6.0624161099999991 -9.9467532047481377e-05 9.922531181493974e-05 1.5307696804578441e-08 
434 1 3.8035688100000002 16.16459914 8.4873826000000001 9.9169095670648133e-05 -9.9508710672421027e-05 -1.5080296567049345e-08 
435 2 5.7052296400000007 14.263015770000001 5.6408710199999987 -0.00010886276162507674 -0.00026059213667545511 1.1905841749715123 
436 2 3.8033787999999991 18.066471669999999 8.9089276899999987 0.00010897096835808112 0.00026074251277012628 -1.190584175063562 
437 2 5.7051730000000003 16.164787990000001 8.0658374699999982 -0.00026100313524623185 -0.00010899592630809183 1.1905836026912571 
438 2 3.8034354299999995 16.164699450000001 6.4839612400000002 0.00026119336491725598 0.0001091289491020192 -1.1905836028266035 
439 1 9.5085165600000003 16.164888399999999 6.0624161099999991 -9.946753204420275e-05 9.9225311807688406e-05 1.5307698767418054e-08 
440 1 7.6070456400000026 16.16459914 8.4873826000000001 9.9169095685074093e-05 -9.9508710670961637e-05 -1.5080307363968259e-08 
441 2 9.5087064699999999 14.263015770000001 5.6408710199999987 -0.00010886276164093905 -0.00026059213667108897 1.1905841749715047 
442 2 7.6068556299999983 18.066471669999999 8.9089276899999987 0.00010897096835563863 0.00026074251275374659 -1.1905841750635775 
443 2 9.5086498300000031 16.164787990000001 8.0658374699999982 -0.00026100313527568225 -0.00010899592629860192 1.1905836026912573 
444 2 7.6069122599999996 16.164699450000001 6.4839612400000002 0.0002611933649134604 0.0001091289490942381 -1.1905836028266055 
445 1 13.31199339 16.164888399999999 6.0624161099999991 -9.9467532049504106e-05 9.922531180147525e-05 1.5307714804069228e-08 
446 1 11.41052247 16.16459914 8.4873826000000001 9.9169095677352961e-05 -9.9508710670133767e-05 -1.5080303498834948e-08 
447 2 13.312183300000006 14.263015770000001 5.6408710199999987 -0.00010886276165053728 -0.00026059213666916316 1.1905841749715067 
448 2 11.410332459999999 18.066471669999999 8.9089276899999987 0.00010897096835317532 0.00026074251278080692 -1.1905841750635695 
449 2 13.312126660000001 16.164787990000001 8.0658374699999982 -0.00026100313525991015 -0.00010899592629552354 1.1905836026912366 
450 2 11.410389089999995 16.164699450000001 6.4839612400000002 0.00026119336495777261 0.00010912894908846548 -1.1905836028266221 
451 1 17.115470219999999 16.164888399999999 6.0624161099999991 -9.9467532032851262e-05 9.9225311805485931e-05 1.5307700759747966e-08 
452 1 15.213999299999998 16.16459914 8.4873826000000001 9.9169095671147733e-05 -9.9508710675432887e-05 -1.5080285962684736e-08 
453 2 17.115660129999998 14.263015770000001 5.6408710199999987 -0.00010886276162878667 -0.00026059213667400352 1.1905841749715151 
454 2 15.213809289999999 18.066471669999999 8.9089276899999987 0.00010897096835758846 0.00026074251277445355 -1.1905841750635793 
455 2 17.115603489999998 16.164787990000001 8.0658374699999982 -0.00026100313521810158 -0.00010899592630586683 1.190583602691254 
456 2 15.213865920000002 16.164699450000001 6.4839612400000002 0.00026119336491004495 0.00010912894908925077 -1.1905836028266195 
457 1 20.91894705 16.164888399999999 6.0624161099999991 -9.9467532040586556e-05 9.9225311812249617e-05 1.5307693251864762e-08 
458 1 19.017476129999999 16.16459914 8.4873826000000001 9.9169095695014059e-05 -9.9508710656596392e-05 -1.5080287121480018e-08 
459 2 20.919136959999999 14.263015770000001 5.6408710199999987 -0.00010886276163648976 -0.00026059213666711748 1.1905841749715256 
460 2 19.017286120000001 18.066471669999999 8.9089276899999987 0.00010897096834651052 0.00026074251276240546 -1.1905841750635697 
461 2 20.919080319999999 16.164787990000001 8.0658374699999982 -0.00026100313521664354 -0.00010899592631242495 1.1905836026912486 
462 2 19.017342750000005 16.164699450000001 6.4839612400000002 0.00026119336486725577 0.00010912894908986237 -1.1905836028266163 
463 1 24.722423880000008 16.164888399999999 6.0624161099999991 -9.9467532035330886e-05 9.9225311804203984e-05 1.5307712625959579e-08 
464 1 22.82095296 16.16459914 8.4873826000000001 9.9169095690727557e-05 -9.9508710660875955e-05 -1.5080276210069354e-08 
465 2 24.722613790000008 14.263015770000001 5.6408710199999987 -0.0001088627616698621 -0.00026059213669028504 1.1905841749715256 
466 2 22.820762950000002 18.066471669999999 8.9089276899999987 0.00010897096832094069 0.0002607425127758565 -1.1905841750635695 
467 2 24.72255715 16.164787990000001 8.0658374699999982 -0.00026100313521828979 -0.0001089959263136436 1.1905836026912606 
468 2 22.820819580000013 16.164699450000001 6.4839612400000002 0.00026119336480332866 0.00010912894907470349 -1.1905836028266263 
469 1 28.525900710000002 16.164888399999999 6.0624161099999991 -9.9467532039959616e-05 9.9225311795110888e-05 1.5307684578247382e-08 
470 1 26.624429790000001 16.16459914 8.4873826000000001 9.9169095675271171e-05 -9.9508710668013475e-05 -1.5080299373831929e-08 
471 2 28.526090619999998 14.263015770000001 5.6408710199999987 -0.00010886276163132175 -0.00026059213667985269 1.1905841749714912 
472 2 26.62423978 18.066471669999999 8.9089276899999987 0.00010897096833634851 0.00026074251275959152 -1.1905841750635744 
473 2 28.526033979999998 16.164787990000001 8.0658374699999982 -0.00026100313520147772 -0.00010899592629152559 1.1905836026912766 
474 2 26.624296410000014 16.164699450000001 6.4839612400000002 0.00026119336480059235 0.0001091289490861274 -1.1905836028265919 
475 1 32.32937754000001 16.164888399999999 6.0624161099999991 -9.946753206013792e-05 9.9225311794910243e-05 1.5307699996469637e-08 
476 1 30.427906619999998 16.16459914 8.4873826000000001 9.9169095704287891e-05 -9.9508710678263874e-05 -1.5080300563852234e-08 
477 2 32.329567449999999 14.263015770000001 5.6408710199999987 -0.00010886276161169856 -0.00026059213666107105 1.1905841749715087 
478 2 30.427716610000001 18.066471669999999 8.9089276899999987 0.00010897096837860637 0.00026074251279216854 -1.1905841750635786 
479 2 32.329510810000002 16.164787990000001 8.0658374699999982 -0.00026100313525934116 -0.00010899592628573935 1.1905836026912557 
480 2 30.42777324 16.164699450000001 6.4839612400000002 0.00026119336491088954 0.00010912894909932485 -1.1905836028266032 
481 1 5.7050376099999998 19.968365230000003 6.0624161099999991 -9.94675320331595e-05 9.9225311822847152e-05 1.5307702772027199e-08 
482 1 3.8035666900000002 19.968075970000001 8.4873826000000001 9.9169095703566246e-05 -9.9508710693850446e-05 -1.5080293680469481e-08 
483 2 5.7052275200000011 18.0664926 5.6408710199999987 -0.0001088627616336324 -0.00026059213664015972 1.1905841749715214 
484 2 3.8033766799999986 21.8699485 8.9089276899999987 0.00010897096835229408 0.00026074251276277279 -1.1905841750636019 
485 2 5.7051708800000007 19.968264819999998 8.0658374699999982 -0.00026100313525740347 -0.00010899592625776837 1.190583602691258 
486 2 3.80343331 19.968176279999998 6.4839612400000002 0.00026119336491570166 0.00010912894910318147 -1.190583602826635 
487 1 9.5085144400000008 19.968365230000003 6.0624161099999991 -9.9467532043802029e-05 9.9225311802852349e-05 1.5307697406961168e-08 
488 1 7.6070435200000004 19.968075970000001 8.4873826000000001 9.9169095673444507e-05 -9.950871069105971e-05 -1.5080289877955622e-08 
489 2 9.5087043500000021 18.0664926 5.6408710199999987 -0.00010886276164659252 -0.00026059213663213988 1.1905841749715107 
490 2 7.6068535099999988 21.8699485 8.9089276899999987 0.00010897096833743791 0.00026074251275522067 -1.1905841750635935 
491 2 9.5086477099999964 19.968264819999998 8.0658374699999982 -0.00026100313521486285 -0.00010899592625602226 1.1905836026912566 
492 2 7.6069101400000001 19.968176279999998 6.4839612400000002 0.00026119336491588901 0.00010912894910012835 -1.1905836028266297 
493 1 13.31199127 19.968365230000003 6.0624161099999991 -9.9467532045670977e-05 9.92253118056452e-05 1.5307703295913688e-08 
494 1 11.410520350000002 19.968075970000001 8.4873826000000001 9.9169095662335474e-05 -9.9508710693353909e-05 -1.5080286208127779e-08 
495 2 13.312181180000001 18.0664926 5.6408710199999987 -0.00010886276163926486 -0.00026059213664820623 1.1905841749715242 
496 2 11.41033034 21.8699485 8.9089276899999987 0.00010897096834896342 0.00026074251275825437 -1.190584175063605 
497 2 13.312124540000001 19.968264819999998 8.0658374699999982 -0.00026100313524378643 -0.00010899592625647492 1.1905836026912642 
498 2 11.410386970000001 19.968176279999998 6.4839612400000002 0.0002611933649019974 0.00010912894911560556 -1.1905836028266026 
499 1 17.115468100000001 19.968365230000003 6.0624161099999991 -9.946753203976633e-05 9.92253118051456e-05 1.5307715487550277e-08 
500 1 15.213997180000007 19.968075970000001 8.4873826000000001 9.9169095681428572e-05 -9.950871068258732e-05 -1.5080285289612028e-08 
501 2 17.115658009999997 18.0664926 5.6408710199999987 -0.00010886276161004889 -0.00026059213666143523 1.1905841749715214 
502 2 15.213807169999999 21.8699485 8.9089276899999987 0.00010897096835464225 0.00026074251275357008 -1.1905841750635984 
503 2 17.11560137 19.968264819999998 8.0658374699999982 -0.00026100313524754309 -0.00010899592626774368 1.19058360269125 
504 2 15.213863800000002 19.968176279999998 6.4839612400000002 0.0002611933648988272 0.00010912894910854176 -1.1905836028266097 
505 1 20.918944930000009 19.968365230000003 6.0624161099999991 -9.9467532064264149e-05 9.9225311793557647e-05 1.5307682826176672e-08 
506 1 19.017474009999997 19.968075970000001 8.4873826000000001 9.9169095662833204e-05 -9.950871070034048e-05 -1.5080284319901605e-08 
507 2 20.919134840000005 18.0664926 5.6408710199999987 -0.00010886276165859084 -0.0002605921366512845 1.1905841749715265 
508 2 19.017284 21.8699485 8.9089276899999987 0.00010897096835784639 0.0002607425127809232 -1.1905841750636159 
509 2 20.919078199999998 19.968264819999998 8.0658374699999982 -0.00026100313522936801 -0.00010899592626438526 1.1905836026912753 
510 2 19.01734063 19.968176279999998 6.4839612400000002 0.00026119336491921112 0.00010912894910759807 -1.1905836028266383 
511 1 24.72242176000001 19.968365230000003 6.0624161099999991 -9.9467532053948521e-05 9.9225311812032804e-05 1.5307723126527077e-08 
512 1 22.820950840000005 19.968075970000001 8.4873826000000001 9.9169095677234878e-05 -9.9508710702612968e-05 -1.5080287156174488e-08 
513 2 24.722611670000006 18.0664926 5.6408710199999987 -0.00010886276166717154 -0.0002605921366455552 1.1905841749715245 
514 2 22.820760830000001 21.8699485 8.9089276899999987 0.00010897096832587652 0.00026074251274678384 -1.1905841750636024 
515 2 24.722555030000006 19.968264819999998 8.0658374699999982 -0.00026100313529314729 -0.00010899592625926435 1.1905836026912591 
516 2 22.820817460000001 19.968176279999998 6.4839612400000002 0.00026119336491064831 0.00010912894910317106 -1.1905836028265988 
517 1 28.525898589999997 19.968365230000003 6.0624161099999991 -9.9467532035539541e-05 9.9225311801088949e-05 1.5307707990075414e-08 
518 1 26.624427670000006 19.968075970000001 8.4873826000000001 9.9169095661769818e-05 -9.9508710681295385e-05 -1.5080301461571632e-08 
519 2 28.526088499999997 18.0664926 5.6408710199999987 -0.00010886276161177835 -0.00026059213662439813 1.1905841749715069 
520 2 26.624237659999999 21.8699485 8.9089276899999987 0.00010897096834717838 0.00026074251275916239 -1.1905841750635884 
521 2 28.526031859999996 19.968264819999998 8.0658374699999982 -0.00026100313520950602 -0.00010899592625773606 1.1905836026912466 
522 2 26.624294290000002 19.968176279999998 6.4839612400000002 0.00026119336490724315 0.00010912894910355682 -1.190583602826597 
523 1 32.329375419999998 19.968365230000003 6.0624161099999991 -9.9467532027497363e-05 9.9225311807109307e-05 1.530769877522431e-08 
524 1 30.4279045 19.968075970000001 8.4873826000000001 9.9169095665430085e-05 -9.9508710708710521e-05 -1.508029925934018e-08 
525 2 32.329565329999994 18.0664926 5.6408710199999987 -0.00010886276161274633 -0.00026059213663280883 1.1905841749715262 
526 2 30.42771449 21.8699485 8.9089276899999987 0.00010897096835993381 0.00026074251273208986 -1.1905841750636266 
527 2 32.329508690000011 19.968264819999998 8.0658374699999982 -0.00026100313535948327 -0.00010899592626607661 1.1905836026912482 
528 2 30.427771119999996 19.968176279999998 6.4839612400000002 0.00026119336495137452 0.00010912894911813305 -1.1905836028265744 
529 1 5.7050354900000002 23.771842060000001 6.0624161099999991 -9.9467532047758933e-05 9.9225311782580317e-05 1.5307700995670359e-08 
530 1 3.8035645699999985 23.771552800000009 8.4873826000000001 9.9169095686690856e-05 -9.950871067976319e-05 -1.5080282245172327e-08 
531 2 5.7052254000000016 21.869969430000001 5.6408710199999987 -0.00010886276163735165 -0.00026059213664353723 1.1905841749715049 
532 2 3.8033745599999991 25.673425330000001 8.9089276899999987 0.00010897096834448783 0.00026074251271235305 -1.1905841750635555 
533 2 5.7051687599999994 23.771741649999999 8.0658374699999982 -0.00026100313525247859 -0.00010899592631566715 1.1905836026912693 
534 2 3.8034311900000004 23.771653110000006 6.4839612400000002 0.00026119336490137979 0.00010912894905351894 -1.1905836028266132 
535 1 9.5085123200000012 23.771842060000001 6.0624161099999991 -9.9467532053577196e-05 9.9225311790555599e-05 1.5307694547703199e-08 
536 1 7.6070414000000008 23.771552800000009 8.4873826000000001 9.9169095675734342e-05 -9.9508710686785351e-05 -1.5080272364187408e-08 
537 2 9.5087022300000008 21.869969430000001 5.6408710199999987 -0.00010886276163561866 -0.00026059213664032885 1.1905841749715127 
538 2 7.6068513899999992 25.673425330000001 8.9089276899999987 0.00010897096835772724 0.00026074251273158419 -1.190584175063562 
539 2 9.5086455899999969 23.771741649999999 8.0658374699999982 -0.00026100313521341956 -0.00010899592630478794 1.1905836026912615 
540 2 7.6069080199999997 23.771653110000006 6.4839612400000002 0.00026119336491868539 0.00010912894906253343 -1.1905836028266281 
541 1 13.31198915 23.771842060000001 6.0624161099999991 -9.9467532034448346e-05 9.9225311788075921e-05 1.5307696832334017e-08 
542 1 11.410518230000001 23.771552800000009 8.4873826000000001 9.9169095676166031e-05 -9.9508710688656223e-05 -1.5080279037404346e-08 
543 2 13.312179060000005 21.869969430000001 5.6408710199999987 -0.00010886276165038388 -0.00026059213664772832 1.1905841749715154 
544 2 11.41032822 25.673425330000001 8.9089276899999987 0.00010897096834584785 0.00026074251272769521 -1.1905841750635628 
545 2 13.312122420000001 23.771741649999999 8.0658374699999982 -0.00026100313525151322 -0.00010899592630173038 1.1905836026912642 
546 2 11.410384850000002 23.771653110000006 6.4839612400000002 0.00026119336489907147 0.0001091289490605836 -1.1905836028266108 
547 1 17.11546598 23.771842060000001 6.0624161099999991 -9.9467532035067127e-05 9.922531178951921e-05 1.5307686285215283e-08 
548 1 15.213995060000002 23.771552800000009 8.4873826000000001 9.9169095670687842e-05 -9.9508710676210477e-05 -1.5080276360990297e-08 
549 2 17.115655889999999 21.869969430000001 5.6408710199999987 -0.00010886276161694132 -0.00026059213664342273 1.1905841749715027 
550 2 15.213805049999999 25.673425330000001 8.9089276899999987 0.00010897096835121769 0.00026074251272845128 -1.19058417506356 
551 2 17.115599249999999 23.771741649999999 8.0658374699999982 -0.00026100313521997247 -0.00010899592630733701 1.1905836026912708 
552 2 15.213861680000004 23.771653110000006 6.4839612400000002 0.00026119336488899207 0.00010912894906522572 -1.1905836028266195 
553 1 20.918942810000004 23.771842060000001 6.0624161099999991 -9.946753205330128e-05 9.9225311783746051e-05 1.5307679457343681e-08 
554 1 19.017471889999999 23.771552800000009 8.4873826000000001 9.91690956823911e-05 -9.9508710682760793e-05 -1.5080283799484562e-08 
555 2 20.919132720000007 21.869969430000001 5.6408710199999987 -0.00010886276167998879 -0.00026059213664653483 1.1905841749715158 
556 2 19.017281880000002 25.673425330000001 8.9089276899999987 0.00010897096834935546 0.00026074251271934745 -1.1905841750635804 
557 2 20.919076080000007 23.771741649999999 8.0658374699999982 -0.00026100313530378998 -0.00010899592630589372 1.1905836026912735 
558 2 19.017338510000002 23.771653110000006 6.4839612400000002 0.00026119336492247766 0.00010912894905583045 -1.1905836028266099 
559 1 24.722419640000005 23.771842060000001 6.0624161099999991 -9.9467532037336552e-05 9.9225311794741053e-05 1.5307697535115559e-08 
560 1 22.820948720000001 23.771552800000009 8.4873826000000001 9.9169095696565878e-05 -9.9508710689422131e-05 -1.5080279969215127e-08 
561 2 24.722609550000008 21.869969430000001 5.6408710199999987 -0.00010886276167740815 -0.000260592136646125 1.1905841749715145 
562 2 22.820758710000003 25.673425330000001 8.9089276899999987 0.00010897096833037932 0.0002607425127175711 -1.1905841750635495 
563 2 24.722552910000005 23.771741649999999 8.0658374699999982 -0.00026100313529322985 -0.0001089959263077811 1.1905836026912655 
564 2 22.820815340000003 23.771653110000006 6.4839612400000002 0.00026119336490422679 0.00010912894905808213 -1.190583602826621 
565 1 28.525896469999999 23.771842060000001 6.0624161099999991 -9.9467532041347395e-05 9.922531179541727e-05 1.5307678888354381e-08 
566 1 26.624425550000002 23.771552800000009 8.4873826000000001 9.9169095665194162e-05 -9.9508710682706149e-05 -1.5080271646879251e-08 
567 2 28.526086379999999 21.869969430000001 5.6408710199999987 -0.00010886276161978237 -0.00026059213664374192 1.1905841749715096 
568 2 26.624235540000001 25.673425330000001 8.9089276899999987 0.00010897096833211578 0.00026074251272888344 -1.1905841750635453 
569 2 28.526029739999998 23.771741649999999 8.0658374699999982 -0.00026100313521652124 -0.00010899592630563004 1.1905836026912562 
570 2 26.624292170000004 23.771653110000006 6.4839612400000002 0.00026119336490310757 0.00010912894905128895 -1.1905836028266095 
571 1 32.3293733 23.771842060000001 6.0624161099999991 -9.9467532025609984e-05 9.9225311794626236e-05 1.5307691447752347e-08 
572 1 30.427902380000006 23.771552800000009 8.4873826000000001 9.9169095674034313e-05 -9.9508710665455191e-05 -1.5080289600399865e-08 
573 2 32.329563210000003 21.869969430000001 5.6408710199999987 -0.00010886276164139702 -0.00026059213666659864 1.1905841749715065 
574 2 30.427712370000009 25.673425330000001 8.9089276899999987 0.00010897096832558628 0.00026074251271528473 -1.1905841750635506 
575 2 32.329506569999999 23.771741649999999 8.0658374699999982 -0.00026100313523225172 -0.00010899592631637145 1.1905836026912584 
576 2 30.427769000000005 23.771653110000006 6.4839612400000002 0.00026119336486853106 0.00010912894904339943 -1.190583602826603 
577 1 7.6067615699999998 6.6561744500000009 10.912348889999997 -9.9467532062968989e-05 9.9225311791351078e-05 1.5307708128853292e-08 
578 1 5.705290650000002 6.6558851900000011 13.33731538 9.9169095662043905e-05 -9.9508710709184101e-05 -1.5080290571845012e-08 
579 2 7.6069514800000011 4.754301820000002 10.490803799999998 -0.0001088627616245702 -0.00026059213665631173 1.1905841749714898 
580 2 5.7051006399999995 8.5577577200000015 13.758860469999998 0.0001089709683735271 0.00026074251272791352 -1.1905841750635806 
581 2 7.6068948400000007 6.65607404 12.91577025 -0.00026100313525123653 -0.00010899592625028542 1.1905836026912435 
582 2 5.7051572700000008 6.6559854999999999 11.333894019999999 0.00026119336488639178 0.00010912894912433468 -1.1905836028265795 
583 1 11.410238400000001 6.6561744500000009 10.912348889999997 -9.9467532045611345e-05 9.9225311805835586e-05 1.5307693072320883e-08 
584 1 9.5087674799999995 6.6558851900000011 13.33731538 9.9169095680029518e-05 -9.9508710686594531e-05 -1.508027133723111e-08 
585 2 11.41042831 4.754301820000002 10.490803799999998 -0.00010886276163051857 -0.00026059213665558553 1.1905841749714792 
586 2 9.5085774699999988 8.5577577200000015 13.758860469999998 0.00010897096834489375 0.00026074251273771817 -1.1905841750635759 
587 2 11.41037167 6.65607404 12.91577025 -0.00026100313524257679 -0.00010899592625955839 1.1905836026912475 
588 2 9.5086340999999983 6.6559854999999999 11.333894019999999 0.00026119336491914336 0.00010912894911502269 -1.1905836028266095 
589 1 15.213715229999998 6.6561744500000009 10.912348889999997 -9.946753203024816e-05 9.9225311805506422e-05 1.530771814861609e-08 
590 1 13.312244310000001 6.6558851900000011 13.33731538 9.9169095687002333e-05 -9.950871068576967e-05 -1.5080276160377319e-08 
591 2 15.213905140000001 4.754301820000002 10.490803799999998 -0.00010886276164184331 -0.00026059213664408887 1.1905841749714883 
592 2 13.3120543 8.5577577200000015 13.758860469999998 0.00010897096834622602 0.00026074251273231879 -1.1905841750635777 
593 2 15.213848500000005 6.65607404 12.91577025 -0.00026100313528734545 -0.00010899592625329343 1.1905836026912238 
594 2 13.312110929999998 6.6559854999999999 11.333894019999999 0.00026119336493166502 0.00010912894911427329 -1.1905836028266081 
595 1 19.017192059999999 6.6561744500000009 10.912348889999997 -9.9467532028189423e-05 9.9225311798734062e-05 1.5307703216116408e-08 
596 1 17.115721139999998 6.6558851900000011 13.33731538 9.916909568441086e-05 -9.9508710686313506e-05 -1.5080264759159689e-08 
597 2 19.017381970000002 4.754301820000002 10.490803799999998 -0.00010886276164859295 -0.00026059213666040915 1.1905841749714741 
598 2 17.115531130000008 8.5577577200000015 13.758860469999998 0.00010897096830634339 0.00026074251273301013 -1.1905841750635677 
599 2 19.017325329999998 6.65607404 12.91577025 -0.00026100313522086824 -0.00010899592627842264 1.1905836026912531 
600 2 17.115587760000004 6.6559854999999999 11.333894019999999 0.00026119336486826543 0.00010912894910683479 -1.190583602826635 
601 1 22.82066889 6.6561744500000009 10.912348889999997 -9.9467532025489448e-05 9.9225311815387407e-05 1.5307714651413562e-08 
602 1 20.919197969999999 6.6558851900000011 13.33731538 9.9169095701575271e-05 -9.9508710670437317e-05 -1.5080265480804655e-08 
603 2 22.820858800000007 4.754301820000002 10.490803799999998 -0.00010886276167058411 -0.00026059213665641234 1.1905841749714978 
604 2 20.919007960000002 8.5577577200000015 13.758860469999998 0.00010897096834616922 0.00026074251271381715 -1.1905841750635571 
605 2 22.82080216 6.65607404 12.91577025 -0.00026100313523400005 -0.00010899592626551977 1.1905836026912364 
606 2 20.919064589999998 6.6559854999999999 11.333894019999999 0.00026119336492739695 0.0001091289490971481 -1.1905836028266212 
607 1 26.624145720000001 6.6561744500000009 10.912348889999997 -9.9467532050473613e-05 9.9225311794630045e-05 1.5307712481665823e-08 
608 1 24.722674799999993 6.6558851900000011 13.33731538 9.9169095705103807e-05 -9.9508710681761592e-05 -1.5080279525125917e-08 
609 2 26.624335630000012 4.754301820000002 10.490803799999998 -0.00010886276169262687 -0.00026059213664629273 1.1905841749714885 
610 2 24.722484790000003 8.5577577200000015 13.758860469999998 0.0001089709683026878 0.00026074251272877741 -1.1905841750635751 
611 2 26.624278990000001 6.65607404 12.91577025 -0.00026100313525107314 -0.0001089959262733052 1.1905836026912517 
612 2 24.722541419999999 6.6559854999999999 11.333894019999999 0.00026119336490692049 0.00010912894911355164 -1.1905836028266172 
613 1 30.427622549999999 6.6561744500000009 10.912348889999997 -9.946753205906933e-05 9.9225311797998539e-05 1.5307679596121559e-08 
614 1 28.526151630000001 6.6558851900000011 13.33731538 9.9169095697664716e-05 -9.9508710659987261e-05 -1.5080268378226541e-08 
615 2 30.427812459999998 4.754301820000002 10.490803799999998 -0.00010886276162317202 -0.0002605921366503651 1.1905841749714763 
616 2 28.525961620000007 8.5577577200000015 13.758860469999998 0.00010897096829372288 0.00026074251273324909 -1.1905841750635644 
617 2 30.427755819999998 6.65607404 12.91577025 -0.00026100313520298346 -0.00010899592628913976 1.1905836026912262 
618 2 28.52601825 6.6559854999999999 11.333894019999999 0.00026119336488306111 0.00010912894910731618 -1.1905836028266124 
619 1 34.231099380000018 6.6561744500000009 10.912348889999997 -9.9467532048258533e-05 9.9225311793238458e-05 1.530769200286386e-08 
620 1 32.329628460000002 6.6558851900000011 13.33731538 9.9169095654161321e-05 -9.9508710672463474e-05 -1.50802562104424e-08 
621 2 34.231289289999999 4.754301820000002 10.490803799999998 -0.00010886276162346692 -0.0002605921366437558 1.1905841749714832 
622 2 32.329438449999984 8.5577577200000015 13.758860469999998 0.00010897096842341775 0.00026074251276390209 -1.1905841750635786 
623 2 34.231232649999995 6.65607404 12.91577025 -0.00026100313517474216 -0.00010899592622473902 1.1905836026912446 
624 2 32.329495080000001 6.6559854999999999 11.333894019999999 0.0002611933649070055 0.00010912894912617002 -1.1905836028266501 
625 1 7.6067594500000002 10.459651279999999 10.912348889999997 -9.9467532028663097e-05 9.9225311829195806e-05 1.5307693751465123e-08 
626 1 5.7052885299999989 10.45936202 13.33731538 9.9169095673756757e-05 -9.9508710674406364e-05 -1.5080303228387493e-08 
627 2 7.6069493600000007 8.5577786499999995 10.490803799999998 -0.00010886276163631775 -0.00026059213661525169 1.1905841749715018 
628 2 5.70509852 12.361234549999999 13.758860469999998 0.00010897096834615316 0.00026074251275551123 -1.1905841750635873 
629 2 7.6068927200000003 10.459550870000001 12.91577025 -0.00026100313525991709 -0.00010899592628713616 1.19058360269124 
630 2 5.7051551499999977 10.459462330000003 11.333894019999999 0.0002611933649407927 0.00010912894907743817 -1.1905836028266401 
631 1 11.410236279999999 10.459651279999999 10.912348889999997 -9.946753203319246e-05 9.9225311819733296e-05 1.5307703279867496e-08 
632 1 9.5087653600000017 10.45936202 13.33731538 9.916909568992785e-05 -9.9508710673594514e-05 -1.508029691399404e-08 
633 2 11.410426189999999 8.5577786499999995 10.490803799999998 -0.00010886276162653565 -0.00026059213663840006 1.1905841749714876 
634 2 9.508575350000001 12.361234549999999 13.758860469999998 0.00010897096833381581 0.00026074251273653466 -1.1905841750635739 
635 2 11.410369550000002 10.459550870000001 12.91577025 -0.00026100313525991709 -0.00010899592629311206 1.1905836026912393 
636 2 9.5086319800000005 10.459462330000003 11.333894019999999 0.00026119336490353084 0.00010912894907996913 -1.1905836028266046 
637 1 15.21371311 10.459651279999999 10.912348889999997 -9.9467532046078176e-05 9.9225311817847245e-05 1.5307724358926134e-08 
638 1 13.312242189999999 10.45936202 13.33731538 9.9169095668582077e-05 -9.9508710680371211e-05 -1.5080286380912336e-08 
639 2 15.21390302 8.5577786499999995 10.490803799999998 -0.00010886276163729487 -0.00026059213663051639 1.1905841749715003 
640 2 13.312052179999998 12.361234549999999 13.758860469999998 0.00010897096835332971 0.00026074251274738113 -1.1905841750635711 
641 2 15.213846380000003 10.459550870000001 12.91577025 -0.00026100313527544525 -0.00010899592629405597 1.1905836026912264 
642 2 13.312108809999998 10.459462330000003 11.333894019999999 0.0002611933649308136 0.00010912894907498527 -1.1905836028266186 
643 1 19.017189940000002 10.459651279999999 10.912348889999997 -9.9467532036935533e-05 9.9225311810204053e-05 1.5307726213345529e-08 
644 1 17.11571902 10.45936202 13.33731538 9.9169095692271895e-05 -9.9508710693266278e-05 -1.5080268596368018e-08 
645 2 19.017379850000001 8.5577786499999995 10.490803799999998 -0.00010886276164100981 -0.0002605921366248265 1.1905841749714889 
646 2 17.115529009999999 12.361234549999999 13.758860469999998 0.00010897096833779136 0.00026074251274449834 -1.1905841750635684 
647 2 19.017323210000001 10.459550870000001 12.91577025 -0.00026100313524266065 -0.00010899592627174048 1.1905836026912415 
648 2 17.115585640000006 10.459462330000003 11.333894019999999 0.00026119336486152679 0.00010912894907715021 -1.1905836028266341 
649 1 22.820666769999999 10.459651279999999 10.912348889999997 -9.9467532046833431e-05 9.9225311805593158e-05 1.5307701004343977e-08 
650 1 20.919195849999998 10.45936202 13.33731538 9.9169095672638511e-05 -9.9508710680713819e-05 -1.5080277238760376e-08 
651 2 22.820856679999999 8.5577786499999995 10.490803799999998 -0.00010886276163285744 -0.00026059213660203917 1.1905841749714972 
652 2 20.919005840000001 12.361234549999999 13.758860469999998 0.00010897096834035854 0.00026074251278339951 -1.1905841750635764 
653 2 22.820800039999991 10.459550870000001 12.91577025 -0.00026100313514396242 -0.0001089959262878526 1.1905836026912153 
654 2 20.91906247 10.459462330000003 11.333894019999999 0.00026119336490243374 0.00010912894909730075 -1.190583602826657 
655 1 26.624143600000007 10.459651279999999 10.912348889999997 -9.9467532043689787e-05 9.9225311806464315e-05 1.5307722667892617e-08 
656 1 24.722672680000006 10.45936202 13.33731538 9.9169095666866653e-05 -9.9508710667016442e-05 -1.5080267805334113e-08 
657 2 26.624333510000007 8.5577786499999995 10.490803799999998 -0.00010886276165982846 -0.0002605921366434423 1.1905841749714969 
658 2 24.722482670000002 12.361234549999999 13.758860469999998 0.00010897096831171999 0.00026074251276048815 -1.1905841750635686 
659 2 26.624276869999992 10.459550870000001 12.91577025 -0.00026100313515922034 -0.00010899592627833243 1.1905836026912455 
660 2 24.722539300000015 10.459462330000003 11.333894019999999 0.00026119336474949391 0.00010912894907787185 -1.1905836028266434 
661 1 30.427620429999997 10.459651279999999 10.912348889999997 -9.9467532029374334e-05 9.9225311805936945e-05 1.530769991320291e-08 
662 1 28.526149510000007 10.45936202 13.33731538 9.9169095643551752e-05 -9.9508710698408866e-05 -1.5080273204660932e-08 
663 2 30.427810339999997 8.5577786499999995 10.490803799999998 -0.00010886276161751335 -0.00026059213664214338 1.1905841749714732 
664 2 28.525959499999999 12.361234549999999 13.758860469999998 0.00010897096832829072 0.00026074251275276994 -1.1905841750635586 
665 2 30.42775369999999 10.459550870000001 12.91577025 -0.00026100313512793932 -0.0001089959262515483 1.1905836026912757 
666 2 28.526016130000009 10.459462330000003 11.333894019999999 0.00026119336481311012 0.00010912894909163927 -1.1905836028266081 
667 1 34.231097259999999 10.459651279999999 10.912348889999997 -9.9467532073738152e-05 9.9225311808638899e-05 1.5307723089108549e-08 
668 1 32.329626340000019 10.45936202 13.33731538 9.9169095659490392e-05 -9.9508710687148776e-05 -1.5080291820845915e-08 
669 2 34.231287170000002 8.5577786499999995 10.490803799999998 -0.00010886276163282055 -0.00026059213663765304 1.1905841749714956 
670 2 32.32943633 12.361234549999999 13.758860469999998 0.00010897096835867093 0.00026074251273423355 -1.1905841750635719 
671 2 34.231230530000012 10.459550870000001 12.91577025 -0.00026100313534671571 -0.00010899592629379576 1.1905836026912131 
672 2 32.329492959999996 10.459462330000003 11.333894019999999 0.00026119336494876549 0.00010912894908572993 -1.1905836028265624 
673 1 7.6067573299999971 14.26312811 10.912348889999997 -9.9467532030828032e-05 9.9225311806361966e-05 1.5307707185163721e-08 
674 1 5.7052864100000003 14.26283885 13.33731538 9.9169095701179266e-05 -9.9508710654968462e-05 -1.5080289239577382e-08 
675 2 7.6069472400000002 12.361255480000001 10.490803799999998 -0.00010886276164655956 -0.00026059213665792085 1.1905841749715063 
676 2 5.7050964000000004 16.16471138 13.758860469999998 0.00010897096831089664 0.00026074251273852959 -1.1905841750635706 
677 2 7.6068905999999998 14.263027699999999 12.91577025 -0.00026100313525425148 -0.00010899592630236356 1.1905836026912364 
678 2 5.70515303 14.262939160000006 11.333894019999999 0.00026119336489294209 0.00010912894906391302 -1.1905836028265973 
679 1 11.410234159999998 14.26312811 10.912348889999997 -9.9467532043194876e-05 9.9225311802504659e-05 1.5307702068163148e-08 
680 1 9.5087632400000004 14.26283885 13.33731538 9.9169095678981745e-05 -9.9508710654795749e-05 -1.5080284923585374e-08 
681 2 11.410424070000001 12.361255480000001 10.490803799999998 -0.00010886276164341277 -0.00026059213665035306 1.1905841749715085 
682 2 9.5085732299999997 16.16471138 13.758860469999998 0.00010897096834742298 0.00026074251272662115 -1.1905841750635762 
683 2 11.410367430000001 14.263027699999999 12.91577025 -0.00026100313525417862 -0.00010899592630258853 1.1905836026912471 
684 2 9.5086298599999992 14.262939160000006 11.333894019999999 0.00026119336491447348 0.00010912894905778809 -1.1905836028266046 
685 1 15.213710989999999 14.26312811 10.912348889999997 -9.9467532036374892e-05 9.9225311812768286e-05 1.5307726968692242e-08 
686 1 13.312240070000001 14.26283885 13.33731538 9.9169095687238269e-05 -9.9508710668035606e-05 -1.5080283003300696e-08 
687 2 15.213900900000002 12.361255480000001 10.490803799999998 -0.00010886276163876345 -0.00026059213665557664 1.1905841749715109 
688 2 13.312050059999999 16.16471138 13.758860469999998 0.00010897096835495168 0.00026074251272218026 -1.1905841750635833 
689 2 15.213844260000005 14.263027699999999 12.91577025 -0.00026100313529143625 -0.00010899592630229298 1.1905836026912207 
690 2 13.312106689999997 14.262939160000006 11.333894019999999 0.0002611933649473222 0.00010912894906332619 -1.1905836028266039 
691 1 19.017187819999997 14.26312811 10.912348889999997 -9.9467532030273327e-05 9.9225311815446699e-05 1.53077364972132e-08 
692 1 17.115716899999999 14.26283885 13.33731538 9.91690956966048e-05 -9.9508710667752399e-05 -1.508028880936596e-08 
693 2 19.017377729999993 12.361255480000001 10.490803799999998 -0.00010886276160190078 -0.00026059213663745729 1.1905841749715005 
694 2 17.115526889999991 16.16471138 13.758860469999998 0.00010897096837234185 0.00026074251273396163 -1.1905841750635806 
695 2 19.017321089999996 14.263027699999999 12.91577025 -0.00026100313520503233 -0.00010899592628761375 1.1905836026912184 
696 2 17.115583520000001 14.262939160000006 11.333894019999999 0.00026119336489834142 0.00010912894908134195 -1.1905836028266339 
697 1 22.820664650000001 14.26312811 10.912348889999997 -9.9467532037444118e-05 9.9225311814385049e-05 1.5307686344715959e-08 
698 1 20.919193729999993 14.26283885 13.33731538 9.9169095663487195e-05 -9.950871067323586e-05 -1.5080266480005378e-08 
699 2 22.820854560000001 12.361255480000001 10.490803799999998 -0.00010886276163601 -0.00026059213666635979 1.1905841749715178 
700 2 20.919003720000003 16.16471138 13.758860469999998 0.00010897096833501776 0.00026074251273959254 -1.1905841750635915 
701 2 22.82079792 14.263027699999999 12.91577025 -0.000261003135239419 -0.00010899592629268554 1.1905836026912562 
702 2 20.919060350000002 14.262939160000006 11.333894019999999 0.00026119336488748725 0.00010912894906487595 -1.1905836028266157 
703 1 26.624141480000002 14.26312811 10.912348889999997 -9.9467532035526612e-05 9.9225311822975413e-05 1.5307726741650143e-08 
704 1 24.722670560000001 14.26283885 13.33731538 9.916909570614231e-05 -9.9508710683874485e-05 -1.5080284854196435e-08 
705 2 26.624331390000002 12.361255480000001 10.490803799999998 -0.00010886276165123984 -0.00026059213664091541 1.1905841749715058 
706 2 24.722480550000004 16.16471138 13.758860469999998 0.00010897096831279053 0.00026074251271671848 -1.1905841750635746 
707 2 26.624274750000005 14.263027699999999 12.91577025 -0.00026100313527172041 -0.00010899592629312887 1.1905836026912275 
708 2 24.722537180000003 14.262939160000006 11.333894019999999 0.00026119336488183292 0.00010912894906647819 -1.1905836028266024 
709 1 30.427618309999993 14.26312811 10.912348889999997 -9.9467532015683896e-05 9.9225311826819546e-05 1.530770611657406e-08 
710 1 28.526147390000002 14.26283885 13.33731538 9.9169095681691383e-05 -9.9508710680094956e-05 -1.5080292429733855e-08 
711 2 30.427808219999996 12.361255480000001 10.490803799999998 -0.00010886276160258779 -0.00026059213663671152 1.1905841749715116 
712 2 28.525957380000001 16.16471138 13.758860469999998 0.00010897096833369958 0.00026074251271584743 -1.1905841750635626 
713 2 30.427751579999999 14.263027699999999 12.91577025 -0.00026100313520983909 -0.00010899592628771314 1.1905836026912286 
714 2 28.526014010000004 14.262939160000006 11.333894019999999 0.00026119336487413075 0.00010912894906506439 -1.1905836028265915 
715 1 34.231095140000001 14.26312811 10.912348889999997 -9.9467532019226201e-05 9.922531181542492e-05 1.530768978241781e-08 
716 1 32.329624219999999 14.26283885 13.33731538 9.9169095665263551e-05 -9.9508710687134681e-05 -1.5080283605195532e-08 
717 2 34.231285049999997 12.361255480000001 10.490803799999998 -0.00010886276161525821 -0.00026059213664880948 1.1905841749715038 
718 2 32.329434210000016 16.16471138 13.758860469999998 0.00010897096829982217 0.00026074251272641125 -1.1905841750635959 
719 2 34.23122841 14.263027699999999 12.91577025 -0.00026100313522581242 -0.0001089959263097212 1.1905836026912493 
720 2 32.329490840000005 14.262939160000006 11.333894019999999 0.00026119336485779659 0.00010912894905421608 -1.1905836028266066 
721 1 7.6067552099999984 18.066604940000001 10.912348889999997 -9.9467532049757335e-05 9.9225311803663631e-05 1.5307714873458167e-08 
722 1 5.7052842899999998 18.066315680000002 13.33731538 9.916909567869725e-05 -9.9508710700001884e-05 -1.5080313331417017e-08 
723 2 7.6069451200000007 16.164732310000005 10.490803799999998 -0.00010886276164065456 -0.00026059213669224837 1.1905841749715202 
724 2 5.7050942800000017 19.968188210000001 13.758860469999998 0.00010897096834801973 0.00026074251275021642 -1.1905841750635728 
725 2 7.6068884800000012 18.06650453 12.91577025 -0.00026100313526290254 -0.00010899592627580299 1.1905836026912466 
726 2 5.7051509100000004 18.066415989999999 11.333894019999999 0.00026119336488483746 0.0001091289491133154 -1.1905836028265633 
727 1 11.41023204 18.066604940000001 10.912348889999997 -9.9467532039827777e-05 9.9225311813338251e-05 1.5307712059736689e-08 
728 1 9.5087611199999991 18.066315680000002 13.33731538 9.9169095693716486e-05 -9.9508710698490831e-05 -1.5080291820845915e-08 
729 2 11.41042195 16.164732310000005 10.490803799999998 -0.00010886276164016537 -0.00026059213669232752 1.1905841749715256 
730 2 9.5085711100000019 19.968188210000001 13.758860469999998 0.00010897096831906372 0.0002607425127530141 -1.1905841750635753 
731 2 11.410365309999998 18.06650453 12.91577025 -0.00026100313522708224 -0.00010899592627889101 1.190583602691252 
732 2 9.5086277399999997 18.066415989999999 11.333894019999999 0.00026119336489316414 0.00010912894910876597 -1.1905836028266141 
733 1 15.213708869999998 18.066604940000001 10.912348889999997 -9.9467532059876614e-05 9.9225311802568139e-05 1.5307727616963826e-08 
734 1 13.31223795 18.066315680000002 13.33731538 9.91690956850172e-05 -9.9508710680122292e-05 -1.5080304890715063e-08 
735 2 15.213898780000001 16.164732310000005 10.490803799999998 -0.0001088627616291476 -0.00026059213669875071 1.1905841749715265 
736 2 13.312047939999999 19.968188210000001 13.758860469999998 0.00010897096835100518 0.0002607425127499927 -1.1905841750635804 
737 2 15.213842140000001 18.06650453 12.91577025 -0.00026100313526589261 -0.00010899592627417463 1.1905836026912431 
738 2 13.312104569999997 18.066415989999999 11.333894019999999 0.00026119336493068013 0.00010912894910698528 -1.1905836028265975 
739 1 19.017185699999999 18.066604940000001 10.912348889999997 -9.9467532043136491e-05 9.9225311803740812e-05 1.5307709742800034e-08 
740 1 17.115714779999998 18.066315680000002 13.33731538 9.9169095676174962e-05 -9.9508710680966221e-05 -1.5080287116275848e-08 
741 2 19.017375610000009 16.164732310000005 10.490803799999998 -0.00010886276166848513 -0.00026059213667899481 1.1905841749715256 
742 2 17.11552477 19.968188210000001 13.758860469999998 0.00010897096834718728 0.00026074251277173784 -1.1905841750635759 
743 2 19.017318969999991 18.06650453 12.91577025 -0.00026100313516752783 -0.00010899592628874012 1.1905836026912409 
744 2 17.115581399999996 18.066415989999999 11.333894019999999 0.00026119336493234373 0.00010912894910139579 -1.1905836028266366 
745 1 22.820662530000007 18.066604940000001 10.912348889999997 -9.9467532047830355e-05 9.9225311803386942e-05 1.5307710532759902e-08 
746 1 20.919191610000006 18.066315680000002 13.33731538 9.9169095675775976e-05 -9.9508710690667228e-05 -1.5080283521928806e-08 
747 2 22.820852440000007 16.164732310000005 10.490803799999998 -0.00010886276167631522 -0.00026059213670657529 1.1905841749715276 
748 2 20.919001600000001 19.968188210000001 13.758860469999998 0.00010897096834491999 0.00026074251272804449 -1.1905841750635762 
749 2 22.820795799999999 18.06650453 12.91577025 -0.00026100313522879647 -0.00010899592628204452 1.190583602691242 
750 2 20.919058230000005 18.066415989999999 11.333894019999999 0.00026119336486437206 0.00010912894910857342 -1.190583602826605 
751 1 26.624139360000008 18.066604940000001 10.912348889999997 -9.9467532049157906e-05 9.9225311807987429e-05 1.5307738951865553e-08 
752 1 24.72266844 18.066315680000002 13.33731538 9.9169095701659785e-05 -9.9508710682072541e-05 -1.508029444374781e-08 
753 2 26.624329270000008 16.164732310000005 10.490803799999998 -0.00010886276167410176 -0.00026059213670402692 1.1905841749715247 
754 2 24.722478430000002 19.968188210000001 13.758860469999998 0.00010897096831474751 0.00026074251274377496 -1.1905841750635657 
755 2 26.62427263 18.06650453 12.91577025 -0.00026100313525787407 -0.00010899592629486673 1.1905836026912617 
756 2 24.722535060000006 18.066415989999999 11.333894019999999 0.00026119336485607488 0.00010912894910273716 -1.1905836028266024 
757 1 30.427616189999998 18.066604940000001 10.912348889999997 -9.9467532075146747e-05 9.9225311800981518e-05 1.530769921931352e-08 
758 1 28.526145270000001 18.066315680000002 13.33731538 9.9169095675453317e-05 -9.950871066983797e-05 -1.508030491367135e-08 
759 2 30.427806099999998 16.164732310000005 10.490803799999998 -0.00010886276161210448 -0.00026059213669288648 1.1905841749715287 
760 2 28.52595526 19.968188210000001 13.758860469999998 0.00010897096832618823 0.00026074251273708045 -1.1905841750635615 
761 2 30.42774945999999 18.06650453 12.91577025 -0.0002610031351466327 -0.00010899592631580628 1.1905836026912398 
762 2 28.526011889999999 18.066415989999999 11.333894019999999 0.00026119336488629463 0.00010912894909814209 -1.1905836028266066 
763 1 34.231093020000017 18.066604940000001 10.912348889999997 -9.9467532040209417e-05 9.9225311792201527e-05 1.5307717982082636e-08 
764 1 32.329622100000002 18.066315680000002 13.33731538 9.9169095676809871e-05 -9.950871067598045e-05 -1.5080287074642484e-08 
765 2 34.231282929999999 16.164732310000005 10.490803799999998 -0.0001088627616224816 -0.00026059213667634339 1.1905841749715258 
766 2 32.329432089999983 19.968188210000001 13.758860469999998 0.00010897096842965581 0.00026074251272275575 -1.1905841750635915 
767 2 34.231226289999995 18.06650453 12.91577025 -0.00026100313520116547 -0.00010899592625564637 1.1905836026912486 
768 2 32.329488720000001 18.066415989999999 11.333894019999999 0.00026119336490354646 0.00010912894911044107 -1.1905836028266337 
769 1 7.6067530899999998 21.870081770000002 10.912348889999997 -9.9467532019614779e-05 9.9225311819107955e-05 1.5307714845702591e-08 
770 1 5.7052821700000003 21.869792510000003 13.33731538 9.9169095678086627e-05 -9.950871067318642e-05 -1.5080275250767272e-08 
771 2 7.6069430000000011 19.968209140000006 10.490803799999998 -0.00010886276164587955 -0.00026059213668892887 1.1905841749715229 
772 2 5.7050921599999995 23.771665040000002 13.758860469999998 0.00010897096835395248 0.00026074251269491908 -1.1905841750635908 
773 2 7.6068863600000007 21.869981360000001 12.91577025 -0.00026100313526466329 -0.00010899592629785024 1.190583602691262 
774 2 5.70514879 21.86989282 11.333894019999999 0.00026119336490049161 0.00010912894908565035 -1.1905836028266283 
775 1 11.410229919999999 21.870081770000002 10.912348889999997 -9.9467532045979107e-05 9.9225311800314015e-05 1.530771863780811e-08 
776 1 9.5087590000000013 21.869792510000003 13.33731538 9.9169095693518727e-05 -9.9508710684679397e-05 -1.5080291432267856e-08 
777 2 11.410419829999999 19.968209140000006 10.490803799999998 -0.00010886276162885324 -0.00026059213668900433 1.1905841749715007 
778 2 9.5085689900000006 23.771665040000002 13.758860469999998 0.00010897096833264661 0.00026074251272848337 -1.1905841750635817 
779 2 11.410363189999998 21.869981360000001 12.91577025 -0.00026100313523017699 -0.00010899592627818303 1.190583602691252 
780 2 9.5086256200000001 21.86989282 11.333894019999999 0.00026119336491152445 0.00010912894909956804 -1.190583602826617 
781 1 15.21370675 21.870081770000002 10.912348889999997 -9.9467532038487934e-05 9.9225311810571815e-05 1.5307725007712714e-08 
782 1 13.312235830000002 21.869792510000003 13.33731538 9.9169095657444245e-05 -9.9508710672148608e-05 -1.5080287283556385e-08 
783 2 15.21389666 19.968209140000006 10.490803799999998 -0.0001088627616272626 -0.00026059213668524518 1.1905841749715196 
784 2 13.312045820000002 23.771665040000002 13.758860469999998 0.00010897096833898702 0.00026074251273461844 -1.1905841750635815 
785 2 15.213840019999999 21.869981360000001 12.91577025 -0.00026100313521371115 -0.00010899592629186328 1.1905836026912524 
786 2 13.312102450000001 21.86989282 11.333894019999999 0.00026119336490005446 0.00010912894909698156 -1.1905836028266226 
787 1 19.017183580000001 21.870081770000002 10.912348889999997 -9.9467532032377059e-05 9.9225311802016158e-05 1.5307744145182101e-08 
788 1 17.115712660000007 21.869792510000003 13.33731538 9.9169095684181578e-05 -9.950871067643946e-05 -1.5080286158708489e-08 
789 2 19.017373490000001 19.968209140000006 10.490803799999998 -0.00010886276163482556 -0.00026059213672356262 1.1905841749715182 
790 2 17.115522649999999 23.771665040000002 13.758860469999998 0.0001089709683520033 0.00026074251270723214 -1.1905841750635797 
791 2 19.017316850000007 21.869981360000001 12.91577025 -0.00026100313529488727 -0.0001089959262824125 1.1905836026912524 
792 2 17.115579280000006 21.86989282 11.333894019999999 0.00026119336487530841 0.00010912894909519133 -1.1905836028265979 
793 1 22.820660409999999 21.870081770000002 10.912348889999997 -9.946753203595105e-05 9.9225311791649451e-05 1.5307723196661405e-08 
794 1 20.919189489999997 21.869792510000003 13.33731538 9.9169095681860518e-05 -9.950871068817313e-05 -1.5080304753209428e-08 
795 2 22.820850319999998 19.968209140000006 10.490803799999998 -0.00010886276164748181 -0.00026059213669474626 1.1905841749715096 
796 2 20.91899948 23.771665040000002 13.758860469999998 0.00010897096835982929 0.00026074251273776328 -1.1905841750635799 
797 2 22.820793680000005 21.869981360000001 12.91577025 -0.00026100313529066896 -0.00010899592628189902 1.1905836026912562 
798 2 20.91905611 21.86989282 11.333894019999999 0.00026119336493552977 0.0001091289491087083 -1.1905836028266248 
799 1 26.62413724 21.870081770000002 10.912348889999997 -9.9467532032257295e-05 9.922531180902825e-05 1.5307751114457382e-08 
800 1 24.722666319999998 21.869792510000003 13.33731538 9.9169095712373003e-05 -9.9508710683808566e-05 -1.5080292859945277e-08 
801 2 26.624327149999999 19.968209140000006 10.490803799999998 -0.00010886276164178386 -0.00026059213668317528 1.1905841749715105 
802 2 24.722476310000001 23.771665040000002 13.758860469999998 0.00010897096831258778 0.00026074251274851856 -1.1905841750635642 
803 2 26.624270510000006 21.869981360000001 12.91577025 -0.00026100313530797668 -0.00010899592628413335 1.1905836026912382 
804 2 24.722532940000001 21.86989282 11.333894019999999 0.00026119336489733745 0.0001091289491006453 -1.1905836028266215 
805 1 30.427614069999997 21.870081770000002 10.912348889999997 -9.9467531999825054e-05 9.9225311794798841e-05 1.5307731457414597e-08 
806 1 28.526143149999999 21.869792510000003 13.33731538 9.9169095680381666e-05 -9.9508710691549769e-05 -1.5080280516520383e-08 
807 2 30.427803979999997 19.968209140000006 10.490803799999998 -0.00010886276160375005 -0.00026059213671085041 1.1905841749714861 
808 2 28.525953139999991 23.771665040000002 13.758860469999998 0.00010897096834612541 0.00026074251275737346 -1.19058417506355 
809 2 30.427747339999996 21.869981360000001 12.91577025 -0.00026100313520365653 -0.00010899592626429158 1.1905836026912722 
810 2 28.526009770000009 21.86989282 11.333894019999999 0.00026119336485171119 0.00010912894909536393 -1.1905836028266397 
811 1 34.231090899999984 21.870081770000002 10.912348889999997 -9.9467532030494965e-05 9.9225311828342322e-05 1.5307744738457529e-08 
812 1 32.329619980000004 21.869792510000003 13.33731538 9.9169095682583031e-05 -9.9508710670461603e-05 -1.508031235997187e-08 
813 2 34.231280810000001 19.968209140000006 10.490803799999998 -0.00010886276164130682 -0.0002605921367011977 1.1905841749715265 
814 2 32.32942997 23.771665040000002 13.758860469999998 0.00010897096835854603 0.00026074251275914808 -1.1905841750635715 
815 2 34.231224169999997 21.869981360000001 12.91577025 -0.00026100313524557439 -0.00010899592630959042 1.1905836026912395 
816 2 32.329486599999996 21.86989282 11.333894019999999 0.00026119336493856879 0.00010912894909050237 -1.1905836028265939 
817 1 7.6067509699999984 25.67355860000001 10.912348889999997 -9.9467532045482976e-05 9.9225311777306757e-05 1.5307693307375914e-08 
818 1 5.7052800500000007 25.673269340000004 13.33731538 9.9169095687912101e-05 -9.9508710689033553e-05 -1.5080274584633457e-08 
819 2 7.6069408800000007 23.771685970000004 10.490803799999998 -0.00010886276163703246 -0.00026059213668214176 1.1905841749715131 
820 2 5.7050900400000017 27.575141870000003 13.758860469999998 0.00010897096834346087 0.00026074251273205951 -1.1905841750635309 
821 2 7.6068842399999994 25.673458190000002 12.91577025 -0.0002610031352267856 -0.00010899592629725827 1.1905836026912522 
822 2 5.7051466699999995 25.673369650000005 11.333894019999999 0.00026119336491814416 0.00010912894905788437 -1.190583602826627 
823 1 11.410227800000001 25.67355860000001 10.912348889999997 -9.9467532052364624e-05 9.9225311789400436e-05 1.5307700257111839e-08 
824 1 9.50875688 25.673269340000004 13.33731538 9.9169095674589425e-05 -9.9508710700108027e-05 -1.5080269227807364e-08 
825 2 11.410417710000001 23.771685970000004 10.490803799999998 -0.00010886276163696654 -0.00026059213666856863 1.1905841749715174 
826 2 9.5085668699999992 27.575141870000003 13.758860469999998 0.00010897096835873685 0.00026074251272176913 -1.1905841750635497 
827 2 11.41036107 25.673458190000002 12.91577025 -0.00026100313524347885 -0.00010899592629680811 1.1905836026912491 
828 2 9.5086234999999988 25.673369650000005 11.333894019999999 0.00026119336492310546 0.0001091289490600042 -1.1905836028266006 
829 1 15.213704630000002 25.67355860000001 10.912348889999997 -9.9467532035704895e-05 9.9225311788408987e-05 1.5307694750665846e-08 
830 1 13.312233710000001 25.673269340000004 13.33731538 9.9169095670079686e-05 -9.9508710710971733e-05 -1.5080261609103451e-08 
831 2 15.213894540000002 23.771685970000004 10.490803799999998 -0.00010886276163744071 -0.00026059213668212008 1.1905841749715143 
832 2 13.3120437 27.575141870000003 13.758860469999998 0.00010897096834680889 0.00026074251271586651 -1.1905841750635553 
833 2 15.213837900000005 25.673458190000002 12.91577025 -0.00026100313528011648 -0.00010899592629520782 1.1905836026912597 
834 2 13.312100330000002 25.673369650000005 11.333894019999999 0.00026119336490530113 0.00010912894906435835 -1.1905836028265997 
835 1 19.01718146 25.67355860000001 10.912348889999997 -9.9467532040411539e-05 9.9225311801620641e-05 1.5307698136846071e-08 
836 1 17.115710540000006 25.673269340000004 13.33731538 9.9169095679435537e-05 -9.9508710689311108e-05 -1.508028418806262e-08 
837 2 19.017371369999999 23.771685970000004 10.490803799999998 -0.00010886276162778528 -0.00026059213666822451 1.1905841749715067 
838 2 17.115520529999998 27.575141870000003 13.758860469999998 0.00010897096834883578 0.00026074251271379634 -1.1905841750635426 
839 2 19.017314729999999 25.673458190000002 12.91577025 -0.00026100313522259863 -0.0001089959263065321 1.1905836026912369 
840 2 17.115577160000001 25.673369650000005 11.333894019999999 0.00026119336491959178 0.00010912894905933807 -1.1905836028266137 
841 1 22.820658289999994 25.67355860000001 10.912348889999997 -9.9467532026930623e-05 9.9225311802175753e-05 1.53076960551779e-08 
842 1 20.91918737 25.673269340000004 13.33731538 9.9169095671475203e-05 -9.9508710695972447e-05 -1.5080292903313364e-08 
843 2 22.820848200000007 23.771685970000004 10.490803799999998 -0.00010886276168004892 -0.00026059213666336989 1.1905841749715291 
844 2 20.918997360000002 27.575141870000003 13.758860469999998 0.00010897096835202546 0.00026074251270158388 -1.1905841750635477 
845 2 22.82079156 25.673458190000002 12.91577025 -0.00026100313524413213 -0.00010899592629851074 1.1905836026912575 
846 2 20.919053990000002 25.673369650000005 11.333894019999999 0.00026119336490336865 0.00010912894904312187 -1.1905836028265908 
847 1 26.624135120000002 25.67355860000001 10.912348889999997 -9.9467532021147462e-05 9.9225311792853728e-05 1.5307714611975708e-08 
848 1 24.722664200000001 25.673269340000004 13.33731538 9.9169095699762729e-05 -9.9508710699969249e-05 -1.5080268034317612e-08 
849 2 26.624325030000012 23.771685970000004 10.490803799999998 -0.00010886276168953213 -0.00026059213667346034 1.1905841749715125 
850 2 24.722474190000003 27.575141870000003 13.758860469999998 0.00010897096830715498 0.00026074251270380433 -1.1905841750635426 
851 2 26.624268390000001 25.673458190000002 12.91577025 -0.00026100313525285822 -0.00010899592628621502 1.1905836026912684 
852 2 24.722530820000003 25.673369650000005 11.333894019999999 0.00026119336488483746 0.00010912894905926174 -1.1905836028266077 
853 1 30.427611949999992 25.67355860000001 10.912348889999997 -9.9467532029058614e-05 9.9225311803476796e-05 1.5307717052270853e-08 
854 1 28.526141030000005 25.673269340000004 13.33731538 9.9169095680718203e-05 -9.9508710697896689e-05 -1.5080288097261974e-08 
855 2 30.427801859999999 23.771685970000004 10.490803799999998 -0.00010886276162459102 -0.00026059213665902831 1.1905841749715058 
856 2 28.525951020000008 27.575141870000003 13.758860469999998 0.00010897096829031068 0.00026074251270582398 -1.1905841750635406 
857 2 30.427745219999998 25.673458190000002 12.91577025 -0.000261003135205648 -0.00010899592630627189 1.1905836026912375 
858 2 28.526007650000004 25.673369650000005 11.333894019999999 0.00026119336489020817 0.00010912894906257853 -1.1905836028265862 
859 1 34.23108878 25.67355860000001 10.912348889999997 -9.9467532016506155e-05 9.922531179912264e-05 1.5307687895038669e-08 
860 1 32.329617859999999 25.673269340000004 13.33731538 9.9169095678253161e-05 -9.9508710699441894e-05 -1.5080261456246191e-08 
861 2 34.231278689999996 23.771685970000004 10.490803799999998 -0.00010886276162046238 -0.00026059213668404649 1.1905841749715189 
862 2 32.329427850000016 27.575141870000003 13.758860469999998 0.00010897096831123665 0.00026074251269218862 -1.190584175063564 
863 2 34.231222050000014 25.673458190000002 12.91577025 -0.00026100313532573249 -0.00010899592631803678 1.1905836026912753 
864 2 32.329484480000005 25.673369650000005 11.333894019999999 0.00026119336487320788 0.0001091289490535996 -1.1905836028265735 
865 1 9.508477049999998 8.5578909900000024 15.76228167 -9.9467532043318041e-05 9.9225311790865356e-05 1.5307698969513339e-08 
866 1 7.6070061300000011 8.5576017300000018 18.187248159999999 9.9169095695850196e-05 -9.9508710660611843e-05 -1.5080294568647901e-08 
867 2 9.5086669600000011 6.65601836 15.340736579999998 -0.00010886276163199482 -0.00026059213663883266 1.1905841749714927 
868 2 7.6068161199999995 10.45947426 18.608793249999998 0.00010897096833393377 0.00026074251277530269 -1.1905841750635711 
869 2 9.5086103199999989 8.5577905800000007 17.765703029999997 -0.00026100313523555463 -0.00010899592630113364 1.1905836026912393 
870 2 7.6068727499999991 8.5577020400000006 16.183826799999999 0.00026119336489682787 0.00010912894911750681 -1.190583602826643 
871 1 13.311953879999999 8.5578909900000024 15.76228167 -9.9467532040087986e-05 9.9225311803182326e-05 1.5307687228037492e-08 
872 1 11.41048296 8.5576017300000018 18.187248159999999 9.916909565937243e-05 -9.9508710667068484e-05 -1.5080282425583569e-08 
873 2 13.31214379 6.65601836 15.340736579999998 -0.00010886276164298082 -0.00026059213664245584 1.1905841749715032 
874 2 11.410292949999999 10.45947426 18.608793249999998 0.00010897096836099199 0.00026074251274486523 -1.1905841750635751 
875 2 13.31208715 8.5577905800000007 17.765703029999997 -0.00026100313523459012 -0.00010899592629931391 1.1905836026912568 
876 2 11.41034958 8.5577020400000006 16.183826799999999 0.00026119336490281614 0.00010912894910369494 -1.190583602826611 
877 1 17.115430709999998 8.5578909900000024 15.76228167 -9.946753203481154e-05 9.9225311805506422e-05 1.5307693113086884e-08 
878 1 15.213959790000001 8.5576017300000018 18.187248159999999 9.9169095677668803e-05 -9.9508710672335985e-05 -1.5080287715224703e-08 
879 2 17.115620620000001 6.65601836 15.340736579999998 -0.00010886276164061271 -0.00026059213664419989 1.1905841749715145 
880 2 15.21376978 10.45947426 18.608793249999998 0.00010897096835796836 0.00026074251274979087 -1.1905841750635777 
881 2 17.115563980000001 8.5577905800000007 17.765703029999997 -0.00026100313525695374 -0.00010899592629645682 1.1905836026912473 
882 2 15.213826409999999 8.5577020400000006 16.183826799999999 0.00026119336491357251 0.00010912894910791726 -1.1905836028266048 
883 1 20.918907539999999 8.5578909900000024 15.76228167 -9.9467532055053323e-05 9.9225311798289972e-05 1.5307675571563095e-08 
884 1 19.017436619999998 8.5576017300000018 18.187248159999999 9.916909567040126e-05 -9.9508710657003618e-05 -1.5080277110390838e-08 
885 2 20.919097449999995 6.65601836 15.340736579999998 -0.00010886276160023439 -0.00026059213664741954 1.1905841749715109 
886 2 19.017246610000001 10.45947426 18.608793249999998 0.0001089709683529072 0.00026074251274370297 -1.1905841750635684 
887 2 20.919040809999998 8.5577905800000007 17.765703029999997 -0.00026100313521376824 -0.00010899592631460897 1.1905836026912764 
888 2 19.017303240000004 8.5577020400000006 16.183826799999999 0.00026119336486782048 0.00010912894910658499 -1.1905836028265977 
889 1 24.722384370000015 8.5578909900000024 15.76228167 -9.946753205587443e-05 9.9225311805617444e-05 1.5307690393040474e-08 
890 1 22.820913450000006 8.5576017300000018 18.187248159999999 9.9169095662033388e-05 -9.9508710668771982e-05 -1.5080276194456843e-08 
891 2 24.722574280000007 6.65601836 15.340736579999998 -0.0001088627616643926 -0.00026059213665563519 1.1905841749715131 
892 2 22.820723440000002 10.45947426 18.608793249999998 0.00010897096834467117 0.00026074251274046945 -1.1905841750635782 
893 2 24.72251764 8.5577905800000007 17.765703029999997 -0.00026100313521517206 -0.00010899592630608801 1.190583602691258 
894 2 22.820780070000005 8.5577020400000006 16.183826799999999 0.0002611933648825331 0.00010912894908404747 -1.1905836028266279 
895 1 28.525861200000008 8.5578909900000024 15.76228167 -9.9467532092529801e-05 9.9225311812171568e-05 1.5307672838623149e-08 
896 1 26.62439028 8.5576017300000018 18.187248159999999 9.9169095681815849e-05 -9.9508710662554734e-05 -1.508029906505115e-08 
897 2 28.526051110000008 6.65601836 15.340736579999998 -0.00010886276168472174 -0.00026059213666983249 1.1905841749715074 
898 2 26.624200270000003 10.45947426 18.608793249999998 0.00010897096832264972 0.00026074251275316762 -1.1905841750635573 
899 2 28.525994470000001 8.5577905800000007 17.765703029999997 -0.0002610031352533195 -0.00010899592630189692 1.1905836026912846 
900 2 26.624256900000006 8.5577020400000006 16.183826799999999 0.0002611933648481524 0.00010912894909193005 -1.1905836028265828 
901 1 32.329338030000017 8.5578909900000024 15.76228167 -9.9467532092917255e-05 9.9225311807865646e-05 1.5307659445573663e-08 
902 1 30.427867110000001 8.5576017300000018 18.187248159999999 9.9169095640904564e-05 -9.9508710680275557e-05 -1.5080279520355427e-08 
903 2 32.329527939999998 6.65601836 15.340736579999998 -0.00010886276160594274 -0.00026059213662513875 1.1905841749714998 
904 2 30.4276771 10.45947426 18.608793249999998 0.00010897096834418946 0.0002607425127574203 -1.1905841750635653 
905 2 32.329471299999994 8.5577905800000007 17.765703029999997 -0.00026100313515287077 -0.00010899592627997695 1.1905836026912546 
906 2 30.42773373 8.5577020400000006 16.183826799999999 0.00026119336491872008 0.0001091289491039815 -1.1905836028266099 
907 1 36.132814860000011 8.5578909900000024 15.76228167 -9.9467532038821638e-05 9.922531176637106e-05 1.5307701550781871e-08 
908 1 34.231343940000002 8.5576017300000018 18.187248159999999 9.9169095655493589e-05 -9.9508710682871815e-05 -1.5080296567049345e-08 
909 2 36.133004769999999 6.65601836 15.340736579999998 -0.00010886276162987152 -0.00026059213663670588 1.1905841749715029 
910 2 34.231153930000005 10.45947426 18.608793249999998 0.00010897096834067144 0.00026074251272613716 -1.1905841750635819 
911 2 36.132948130000017 8.5577905800000007 17.765703029999997 -0.00026100313538313102 -0.00010899592629658172 1.19058360269126 
912 2 34.231210560000001 8.5577020400000006 16.183826799999999 0.00026119336491947122 0.00010912894910248758 -1.1905836028265402 
913 1 9.5084749299999967 12.361367820000003 15.76228167 -9.9467532055474983e-05 9.92253118139233e-05 1.5307699968714061e-08 
914 1 7.6070040100000007 12.361078560000001 18.187248159999999 9.9169095678919295e-05 -9.9508710703591352e-05 -1.5080296011937833e-08 
915 2 9.5086648400000016 10.45949519 15.340736579999998 -0.00010886276164194519 -0.00026059213664594199 1.190584174971514 
916 2 7.606814 14.262951090000001 18.608793249999998 0.00010897096833911019 0.00026074251270999122 -1.1905841750635791 
917 2 9.508608200000003 12.361267410000002 17.765703029999997 -0.00026100313526483503 -0.00010899592629271676 1.1905836026912433 
918 2 7.6068706299999995 12.36117887 16.183826799999999 0.00026119336490937339 0.00010912894906446591 -1.1905836028265935 
919 1 13.311951759999999 12.361367820000003 15.76228167 -9.9467532028722078e-05 9.9225311815083654e-05 1.5307702566462467e-08 
920 1 11.410480840000002 12.361078560000001 18.187248159999999 9.9169095681354846e-05 -9.9508710689012736e-05 -1.5080277457335534e-08 
921 2 13.312141669999999 10.45949519 15.340736579999998 -0.00010886276163721113 -0.00026059213665008971 1.1905841749715123 
922 2 11.410290830000001 14.262951090000001 18.608793249999998 0.00010897096834390496 0.00026074251274358935 -1.1905841750635806 
923 2 13.312085029999999 12.361267410000002 17.765703029999997 -0.00026100313522443158 -0.00010899592629489621 1.1905836026912475 
924 2 11.410347460000001 12.36117887 16.183826799999999 0.0002611933649075554 0.00010912894908714048 -1.190583602826625 
925 1 17.11542859 12.361367820000003 15.76228167 -9.9467532037643639e-05 9.9225311802803723e-05 1.5307709854903151e-08 
926 1 15.213957669999996 12.361078560000001 18.187248159999999 9.9169095689101308e-05 -9.9508710678400579e-05 -1.5080283594885447e-08 
927 2 17.115618499999997 10.45949519 15.340736579999998 -0.00010886276163450086 -0.00026059213664779424 1.1905841749715262 
928 2 15.213767659999998 14.262951090000001 18.608793249999998 0.00010897096836078729 0.00026074251273036793 -1.1905841750635748 
929 2 17.115561860000003 12.361267410000002 17.765703029999997 -0.00026100313528279776 -0.00010899592629813604 1.190583602691264 
930 2 15.21382429 12.36117887 16.183826799999999 0.00026119336490982041 0.00010912894908704507 -1.1905836028265975 
931 1 20.918905420000002 12.361367820000003 15.76228167 -9.9467532042067061e-05 9.9225311800885119e-05 1.5307689275878555e-08 
932 1 19.017434499999993 12.361078560000001 18.187248159999999 9.9169095690722136e-05 -9.9508710698949232e-05 -1.5080275521384134e-08 
933 2 20.919095330000001 10.45949519 15.340736579999998 -0.0001088627616250785 -0.00026059213664939018 1.1905841749715331 
934 2 19.017244489999992 14.262951090000001 18.608793249999998 0.00010897096838485722 0.00026074251273335881 -1.1905841750635757 
935 2 20.919038690000001 12.361267410000002 17.765703029999997 -0.00026100313525399056 -0.00010899592627795773 1.1905836026912755 
936 2 19.017301119999999 12.36117887 16.183826799999999 0.00026119336491391891 0.00010912894908386706 -1.1905836028266061 
937 1 24.722382250000003 12.361367820000003 15.76228167 -9.9467532056810815e-05 9.9225311805353766e-05 1.5307675679115951e-08 
938 1 22.820911329999998 12.361078560000001 18.187248159999999 9.9169095682737638e-05 -9.9508710698754943e-05 -1.5080292264935125e-08 
939 2 24.722572159999999 10.45949519 15.340736579999998 -0.0001088627616482952 -0.00026059213664809955 1.1905841749715229 
940 2 22.820721320000001 14.262951090000001 18.608793249999998 0.00010897096835321597 0.00026074251274376889 -1.1905841750635877 
941 2 24.722515519999998 12.361267410000002 17.765703029999997 -0.00026100313522396077 -0.0001089959262827872 1.1905836026912717 
942 2 22.82077795 12.36117887 16.183826799999999 0.00026119336490721518 0.00010912894909684279 -1.1905836028266121 
943 1 28.525859080000004 12.361367820000003 15.76228167 -9.9467532048330823e-05 9.9225311779666334e-05 1.5307687232298068e-08 
944 1 26.624388159999999 12.361078560000001 18.187248159999999 9.916909567885099e-05 -9.950871067988809e-05 -1.5080268162687149e-08 
945 2 28.52604899 10.45949519 15.340736579999998 -0.00010886276163707929 -0.00026059213661531805 1.1905841749715169 
946 2 26.624198150000002 14.262951090000001 18.608793249999998 0.00010897096832351902 0.00026074251273868355 -1.1905841750635653 
947 2 28.525992349999999 12.361267410000002 17.765703029999997 -0.00026100313524092327 -0.0001089959262820378 1.1905836026912711 
948 2 26.624254780000001 12.36117887 16.183826799999999 0.0002611933648847954 0.00010912894910122817 -1.1905836028265899 
949 1 32.329335909999998 12.361367820000003 15.76228167 -9.9467532040008189e-05 9.9225311795611912e-05 1.530767858304305e-08 
950 1 30.427864990000003 12.361078560000001 18.187248159999999 9.9169095683082631e-05 -9.9508710693184312e-05 -1.508029770242586e-08 
951 2 32.329525819999994 10.45949519 15.340736579999998 -0.0001088627615648402 -0.0002605921366121422 1.1905841749715151 
952 2 30.427674979999992 14.262951090000001 18.608793249999998 0.00010897096836642688 0.00026074251275344084 -1.1905841750635897 
953 2 32.329469179999997 12.361267410000002 17.765703029999997 -0.00026100313518698237 -0.00010899592629247997 1.1905836026912042 
954 2 30.427731610000002 12.36117887 16.183826799999999 0.00026119336490517536 0.00010912894910498341 -1.1905836028265944 
955 1 36.132812739999999 12.361367820000003 15.76228167 -9.9467531988528535e-05 9.9225311846463243e-05 1.5307689671395508e-08 
956 1 34.231341819999997 12.361078560000001 18.187248159999999 9.916909566276555e-05 -9.9508710684828583e-05 -1.5080289683666592e-08 
957 2 36.13300264999998 10.45949519 15.340736579999998 -0.00010886276156576308 -0.00026059213666911399 1.1905841749715289 
958 2 34.23115181 14.262951090000001 18.608793249999998 0.00010897096836524206 0.00026074251272424978 -1.1905841750635915 
959 2 36.132946009999998 12.361267410000002 17.765703029999997 -0.00026100313520438512 -0.00010899592630032179 1.1905836026913112 
960 2 34.231208440000017 12.36117887 16.183826799999999 0.00026119336474276882 0.00010912894910256065 -1.1905836028265953 
961 1 9.5084728100000007 16.164844649999999 15.76228167 -9.9467532020058869e-05 9.9225311807160806e-05 1.5307686396237585e-08 
962 1 7.6070018899999976 16.164555390000004 18.187248159999999 9.9169095673257157e-05 -9.95087106889524e-05 -1.5080300785896839e-08 
963 2 9.5086627200000002 14.262972020000001 15.340736579999998 -0.00010886276164070313 -0.00026059213667579929 1.1905841749715054 
964 2 7.6068118799999995 18.066427920000002 18.608793249999998 0.00010897096835423004 0.00026074251274588742 -1.1905841750635828 
965 2 9.5086060799999998 16.164744240000001 17.765703029999997 -0.00026100313524432539 -0.00010899592631288747 1.1905836026912637 
966 2 7.60686851 16.164655700000004 16.183826799999999 0.00026119336491026157 0.00010912894907138382 -1.1905836028266332 
967 1 13.311949640000002 16.164844649999999 15.76228167 -9.9467532063583081e-05 9.9225311809612716e-05 1.5307683870913885e-08 
968 1 11.410478719999997 16.164555390000004 18.187248159999999 9.9169095680785857e-05 -9.9508710665703257e-05 -1.5080304019421398e-08 
969 2 13.312139550000001 14.262972020000001 15.340736579999998 -0.00010886276164168152 -0.00026059213666465916 1.1905841749715032 
970 2 11.41028871 18.066427920000002 18.608793249999998 0.00010897096835678355 0.00026074251272804557 -1.1905841750635726 
971 2 13.312082910000001 16.164744240000001 17.765703029999997 -0.00026100313525224267 -0.00010899592631102778 1.1905836026912686 
972 2 11.410345339999999 16.164655700000004 16.183826799999999 0.00026119336491925438 0.00010912894906663063 -1.1905836028265984 
973 1 17.115426470000003 16.164844649999999 15.76228167 -9.9467532050011607e-05 9.9225311811489809e-05 1.530769383473185e-08 
974 1 15.213955550000001 16.164555390000004 18.187248159999999 9.9169095661544792e-05 -9.9508710667404139e-05 -1.5080283976136671e-08 
975 2 17.115616380000006 14.262972020000001 15.340736579999998 -0.00010886276165392445 -0.00026059213665819293 1.1905841749715202 
976 2 15.213765539999999 18.066427920000002 18.608793249999998 0.00010897096835371656 0.00026074251272962097 -1.1905841750635753 
977 2 17.115559740000002 16.164744240000001 17.765703029999997 -0.00026100313525629151 -0.00010899592630906913 1.1905836026912671 
978 2 15.213822169999998 16.164655700000004 16.183826799999999 0.00026119336493014497 0.0001091289490653478 -1.1905836028266052 
979 1 20.918903300000004 16.164844649999999 15.76228167 -9.9467532052010686e-05 9.9225311807436193e-05 1.5307697387445529e-08 
980 1 19.017432380000006 16.164555390000004 18.187248159999999 9.916909567204979e-05 -9.9508710665792595e-05 -1.5080285020729889e-08 
981 2 20.91909321 14.262972020000001 15.340736579999998 -0.00010886276163319675 -0.000260592136656623 1.190584174971508 
982 2 19.017242369999998 18.066427920000002 18.608793249999998 0.00010897096836535699 0.00026074251273983508 -1.1905841750635719 
983 2 20.919036569999996 16.164744240000001 17.765703029999997 -0.00026100313519344638 -0.00010899592631297269 1.1905836026912517 
984 2 19.017299000000001 16.164655700000004 16.183826799999999 0.00026119336490928232 0.00010912894908394859 -1.1905836028266206 
985 1 24.722380130000005 16.164844649999999 15.76228167 -9.9467532047747942e-05 9.9225311817683639e-05 1.5307694500865665e-08 
986 1 22.82090921 16.164555390000004 18.187248159999999 9.916909566354444e-05 -9.9508710673228053e-05 -1.5080300674874536e-08 
987 2 24.722570040000001 14.262972020000001 15.340736579999998 -0.00010886276164569466 -0.00026059213665422692 1.1905841749715094 
988 2 22.820719200000003 18.066427920000002 18.608793249999998 0.00010897096834105351 0.00026074251270755524 -1.1905841750635697 
989 2 24.7225134 16.164744240000001 17.765703029999997 -0.00026100313523555506 -0.00010899592631026219 1.1905836026912697 
990 2 22.820775830000002 16.164655700000004 16.183826799999999 0.00026119336488944662 0.00010912894907425235 -1.1905836028265939 
991 1 28.525856960000006 16.164844649999999 15.76228167 -9.9467532043704966e-05 9.9225311823131104e-05 1.5307701218656865e-08 
992 1 26.624386040000001 16.164555390000004 18.187248159999999 9.9169095675985877e-05 -9.9508710679972225e-05 -1.5080285797886006e-08 
993 2 28.526046870000002 14.262972020000001 15.340736579999998 -0.00010886276163647041 -0.00026059213665912952 1.1905841749715156 
994 2 26.624196030000004 18.066427920000002 18.608793249999998 0.00010897096830971053 0.00026074251272925402 -1.1905841750635635 
995 2 28.525990230000001 16.164744240000001 17.765703029999997 -0.00026100313523367072 -0.00010899592631565414 1.190583602691262 
996 2 26.624252660000003 16.164655700000004 16.183826799999999 0.00026119336487517679 0.00010912894906958074 -1.1905836028265973 
997 1 32.32933379 16.164844649999999 15.76228167 -9.946753204790465e-05 9.9225311810203836e-05 1.5307684578247382e-08 
998 1 30.427862870000002 16.164555390000004 18.187248159999999 9.9169095677127325e-05 -9.9508710642525183e-05 -1.508029405950656e-08 
999 2 32.329523699999996 14.262972020000001 15.340736579999998 -0.0001088627616110012 -0.00026059213670275293 1.1905841749715127 
1000 2 30.427672860000008 18.066427920000002 18.608793249999998 0.00010897096830624065 0.00026074251269390144 -1.1905841750635624 
1001 2 32.329467060000013 16.164744240000001 17.765703029999997 -0.00026100313534154623 -0.00010899592634060597 1.1905836026912844 
1002 2 30.427729490000004 16.164655700000004 16.183826799999999 0.00026119336489146411 0.00010912894904774946 -1.1905836028265588 
1003 1 36.132810620000001 16.164844649999999 15.76228167 -9.9467532038266526e-05 9.9225311799262881e-05 1.5307691780819255e-08 
1004 1 34.231339700000007 16.164555390000004 18.187248159999999 9.9169095685414099e-05 -9.950871065045005e-05 -1.5080306059456206e-08 
1005 2 36.133000530000004 14.262972020000001 15.340736579999998 -0.00010886276165503889 -0.00026059213664296509 1.1905841749714972 
1006 2 34.231149690000002 18.066427920000002 18.608793249999998 0.00010897096835162101 0.00026074251273379727 -1.1905841750635904 
1007 2 36.132943890000014 16.164744240000001 17.765703029999997 -0.00026100313535548647 -0.00010899592631150972 1.1905836026912229 
1008 2 34.231206319999991 16.164655700000004 16.183826799999999 0.0002611933650195266 0.00010912894907330736 -1.1905836028266039 
1009 1 9.5084706899999993 19.968321480000004 15.76228167 -9.9467532051089602e-05 9.9225311785890088e-05 1.5307697553978983e-08 
1010 1 7.6069997699999972 19.968032220000001 18.187248159999999 9.9169095694906506e-05 -9.9508710669809727e-05 -1.5080311999149387e-08 
1011 2 9.5086605999999971 18.06644885 15.340736579999998 -0.0001088627616300103 -0.00026059213664944938 1.1905841749714983 
1012 2 7.60680976 21.86990475 18.608793249999998 0.00010897096835341125 0.0002607425127493895 -1.1905841750635902 
1013 2 9.5086039600000021 19.968221069999998 17.765703029999997 -0.00026100313527688268 -0.00010899592628621285 1.1905836026912557 
1014 2 7.6068663900000022 19.968132529999998 16.183826799999999 0.00026119336487329115 0.00010912894913340479 -1.1905836028265928 
1015 1 13.31194752 19.968321480000004 15.76228167 -9.9467532038941334e-05 9.9225311793056772e-05 1.5307680611802155e-08 
1016 1 11.410476599999996 19.968032220000001 18.187248159999999 9.9169095694268128e-05 -9.9508710679084263e-05 -1.5080300466707719e-08 
1017 2 13.31213743 18.06644885 15.340736579999998 -0.00010886276163283963 -0.00026059213665347741 1.190584174971516 
1018 2 11.410286589999998 21.86990475 18.608793249999998 0.00010897096836859355 0.00026074251275997717 -1.1905841750635731 
1019 2 13.31208079 19.968221069999998 17.765703029999997 -0.00026100313523729629 -0.00010899592627990587 1.1905836026912706 
1020 2 11.41034322 19.968132529999998 16.183826799999999 0.00026119336491106648 0.00010912894911057182 -1.1905836028266163 
1021 1 17.115424349999998 19.968321480000004 15.76228167 -9.9467532043056328e-05 9.9225311801576311e-05 1.5307702994071803e-08 
1022 1 15.21395343 19.968032220000001 18.187248159999999 9.9169095682844798e-05 -9.9508710685274407e-05 -1.5080311064097858e-08 
1023 2 17.115614260000001 18.06644885 15.340736579999998 -0.00010886276162620034 -0.00026059213665089809 1.190584174971524 
1024 2 15.213763419999999 21.86990475 18.608793249999998 0.0001089709683563464 0.00026074251275669865 -1.1905841750635759 
1025 2 17.115557620000001 19.968221069999998 17.765703029999997 -0.00026100313523950459 -0.00010899592627337416 1.190583602691248 
1026 2 15.213820049999999 19.968132529999998 16.183826799999999 0.00026119336492816392 0.00010912894911749597 -1.1905836028266075 
1027 1 20.918901179999999 19.968321480000004 15.76228167 -9.9467532035025114e-05 9.9225311789743329e-05 1.5307692169397313e-08 
1028 1 19.017430259999998 19.968032220000001 18.187248159999999 9.9169095676324148e-05 -9.9508710683142865e-05 -1.5080284521129528e-08 
1029 2 20.919091090000002 18.06644885 15.340736579999998 -0.00010886276164230331 -0.00026059213664974889 1.1905841749715076 
1030 2 19.01724025 21.86990475 18.608793249999998 0.00010897096834990906 0.00026074251274484724 -1.1905841750635697 
1031 2 20.919034450000005 19.968221069999998 17.765703029999997 -0.0002610031352661365 -0.00010899592628060579 1.1905836026912571 
1032 2 19.017296880000004 19.968132529999998 16.183826799999999 0.00026119336489395257 0.00010912894910690635 -1.1905836028265984 
1033 1 24.72237801 19.968321480000004 15.76228167 -9.9467532018322058e-05 9.9225311800564114e-05 1.5307702216915686e-08 
1034 1 22.820907089999999 19.968032220000001 18.187248159999999 9.9169095720210917e-05 -9.9508710672040201e-05 -1.5080285464819099e-08 
1035 2 24.722567919999999 18.06644885 15.340736579999998 -0.00010886276163847721 -0.00026059213664688405 1.1905841749715274 
1036 2 22.820717080000001 21.86990475 18.608793249999998 0.00010897096836136604 0.00026074251276582102 -1.1905841750635546 
1037 2 24.722511279999999 19.968221069999998 17.765703029999997 -0.00026100313521334843 -0.00010899592628185783 1.1905836026912402 
1038 2 22.820773710000005 19.968132529999998 16.183826799999999 0.00026119336488094214 0.00010912894911493964 -1.1905836028266268 
1039 1 28.525854840000008 19.968321480000004 15.76228167 -9.9467532048498359e-05 9.9225311802633205e-05 1.5307681914225425e-08 
1040 1 26.624383919999993 19.968032220000001 18.187248159999999 9.9169095700063839e-05 -9.950871069268211e-05 -1.5080289739177744e-08 
1041 2 28.526044750000008 18.06644885 15.340736579999998 -0.00010886276166238891 -0.00026059213667212059 1.1905841749715305 
1042 2 26.624193910000002 21.86990475 18.608793249999998 0.00010897096832090079 0.00026074251277318579 -1.1905841750635626 
1043 2 28.52598811 19.968221069999998 17.765703029999997 -0.00026100313523016484 -0.00010899592628386794 1.1905836026912762 
1044 2 26.624250540000013 19.968132529999998 16.183826799999999 0.00026119336480208422 0.00010912894910465381 -1.1905836028266119 
1045 1 32.329331670000002 19.968321480000004 15.76228167 -9.9467532072652215e-05 9.922531180045156e-05 1.5307677653231266e-08 
1046 1 30.427860750000001 19.968032220000001 18.187248159999999 9.9169095691005113e-05 -9.9508710704268328e-05 -1.5080286359069051e-08 
1047 2 32.329521579999998 18.06644885 15.340736579999998 -0.00010886276160195288 -0.00026059213665639353 1.1905841749715003 
1048 2 30.42767074 21.86990475 18.608793249999998 0.00010897096834004694 0.00026074251278982038 -1.1905841750635604 
1049 2 32.329464939999994 19.968221069999998 17.765703029999997 -0.00026100313512944506 -0.00010899592626834005 1.1905836026912995 
1050 2 30.427727370000014 19.968132529999998 16.183826799999999 0.0002611933647964429 0.00010912894910495197 -1.1905836028265937 
1051 1 36.13280850000001 19.968321480000004 15.76228167 -9.9467532081898291e-05 9.922531179164197e-05 1.5307709544387649e-08 
1052 1 34.231337580000016 19.968032220000001 18.187248159999999 9.9169095662599016e-05 -9.9508710692334731e-05 -1.5080284465618377e-08 
1053 2 36.132998410000013 18.06644885 15.340736579999998 -0.00010886276167577924 -0.00026059213664587786 1.1905841749715027 
1054 2 34.231147570000005 21.86990475 18.608793249999998 0.00010897096833936692 0.00026074251275502247 -1.1905841750635751 
1055 2 36.132941770000002 19.968221069999998 17.765703029999997 -0.00026100313523513829 -0.00010899592628684437 1.1905836026911933 
1056 2 34.231204200000001 19.968132529999998 16.183826799999999 0.00026119336492146095 0.00010912894908405202 -1.190583602826609 
1057 1 9.508468569999998 23.771798310000008 15.76228167 -9.946753205675174e-05 9.9225311812908487e-05 1.5307690198751445e-08 
1058 1 7.6069976499999994 23.771509050000002 18.187248159999999 9.916909570617527e-05 -9.9508710676294611e-05 -1.5080306225989659e-08 
1059 2 9.5086584800000011 21.869925680000001 15.340736579999998 -0.00010886276163846881 -0.00026059213665333755 1.190584174971526 
1060 2 7.6068076399999995 25.673381580000001 18.608793249999998 0.00010897096835016384 0.00026074251274346531 -1.1905841750635817 
1061 2 9.5086018400000007 23.771697899999999 17.765703029999997 -0.00026100313524750861 -0.00010899592628461582 1.1905836026912473 
1062 2 7.6068642699999982 23.771609359999999 16.183826799999999 0.0002611933649357967 0.00010912894906721024 -1.190583602826617 
1063 1 13.311945400000001 23.771798310000008 15.76228167 -9.9467532036909972e-05 9.9225311799556795e-05 1.5307680274398439e-08 
1064 1 11.410474480000001 23.771509050000002 18.187248159999999 9.9169095677982544e-05 -9.9508710689973556e-05 -1.5080298607084153e-08 
1065 2 13.312135309999999 21.869925680000001 15.340736579999998 -0.00010886276163509304 -0.00026059213666112645 1.1905841749715265 
1066 2 11.410284470000001 25.673381580000001 18.608793249999998 0.00010897096835423351 0.00026074251275618257 -1.1905841750635906 
1067 2 13.312078670000002 23.771697899999999 17.765703029999997 -0.00026100313524927976 -0.00010899592629261765 1.1905836026912711 
1068 2 11.4103411 23.771609359999999 16.183826799999999 0.00026119336491203793 0.00010912894910093934 -1.190583602826611 
1069 1 17.11542223 23.771798310000008 15.76228167 -9.946753205572584e-05 9.9225311794896853e-05 1.5307701002609253e-08 
1070 1 15.213951310000006 23.771509050000002 18.187248159999999 9.91690956577997e-05 -9.9508710679746738e-05 -1.5080309342020584e-08 
1071 2 17.115612140000003 21.869925680000001 15.340736579999998 -0.00010886276163929887 -0.00026059213666504606 1.1905841749715231 
1072 2 15.213761299999994 25.673381580000001 18.608793249999998 0.00010897096837328077 0.00026074251275428852 -1.1905841750635835 
1073 2 17.115555500000003 23.771697899999999 17.765703029999997 -0.00026100313526264917 -0.00010899592628905996 1.1905836026912635 
1074 2 15.213817929999999 23.771609359999999 16.183826799999999 0.00026119336492964364 0.00010912894909177739 -1.1905836028266008 
1075 1 20.918899060000001 23.771798310000008 15.76228167 -9.9467532021132744e-05 9.9225311796374838e-05 1.530772273522496e-08 
1076 1 19.017428140000007 23.771509050000002 18.187248159999999 9.9169095662554482e-05 -9.9508710693373831e-05 -1.5080294901714808e-08 
1077 2 20.919088970000001 21.869925680000001 15.340736579999998 -0.00010886276162805833 -0.00026059213665703077 1.1905841749715371 
1078 2 19.017238129999999 25.673381580000001 18.608793249999998 0.00010897096835765275 0.00026074251275874649 -1.1905841750635815 
1079 2 20.91903233 23.771697899999999 17.765703029999997 -0.00026100313524544185 -0.00010899592628475785 1.1905836026912395 
1080 2 19.017294759999999 23.771609359999999 16.183826799999999 0.00026119336493566877 0.00010912894909254067 -1.1905836028266077 
1081 1 24.722375889999995 23.771798310000008 15.76228167 -9.9467532042418397e-05 9.9225311787382031e-05 1.5307680154702519e-08 
1082 1 22.820904969999997 23.771509050000002 18.187248159999999 9.9169095668223518e-05 -9.9508710684838991e-05 -1.5080308151532718e-08 
1083 2 24.722565800000005 21.869925680000001 15.340736579999998 -0.00010886276167326603 -0.00026059213665960423 1.1905841749715393 
1084 2 22.82071496 25.673381580000001 18.608793249999998 0.00010897096835882738 0.00026074251276791971 -1.1905841750635875 
1085 2 24.722509160000001 23.771697899999999 17.765703029999997 -0.00026100313524669508 -0.00010899592628677013 1.1905836026912808 
1086 2 22.82077159 23.771609359999999 16.183826799999999 0.00026119336491068723 0.00010912894911294102 -1.1905836028266004 
1087 1 28.525852720000003 23.771798310000008 15.76228167 -9.9467532038327838e-05 9.922531177331379e-05 1.5307710012637626e-08 
1088 1 26.624381800000005 23.771509050000002 18.187248159999999 9.9169095687695369e-05 -9.9508710679905438e-05 -1.5080295177535841e-08 
1089 2 28.526042630000006 21.869925680000001 15.340736579999998 -0.00010886276166048939 -0.00026059213664578852 1.1905841749715371 
1090 2 26.624191790000001 25.673381580000001 18.608793249999998 0.00010897096832700886 0.00026074251274560423 -1.1905841750635826 
1091 2 28.525985990000006 23.771697899999999 17.765703029999997 -0.00026100313527879413 -0.0001089959262715462 1.1905836026912573 
1092 2 26.624248420000001 23.771609359999999 16.183826799999999 0.00026119336490542668 0.00010912894911153936 -1.1905836028266008 
1093 1 32.329329549999997 23.771798310000008 15.76228167 -9.9467532014570204e-05 9.9225311793600147e-05 1.5307686562771039e-08 
1094 1 30.427858629999996 23.771509050000002 18.187248159999999 9.9169095705184743e-05 -9.9508710696969913e-05 -1.5080301693157216e-08 
1095 2 32.329519459999993 21.869925680000001 15.340736579999998 -0.00010886276155916072 -0.00026059213662100366 1.1905841749715271 
1096 2 30.427668619999999 25.673381580000001 18.608793249999998 0.00010897096834431262 0.00026074251275609106 -1.1905841750635904 
1097 2 32.32946282000001 23.771697899999999 17.765703029999997 -0.00026100313530633829 -0.00010899592628025364 1.1905836026912298 
1098 2 30.427725250000002 23.771609359999999 16.183826799999999 0.00026119336492210626 0.00010912894912032964 -1.1905836028265693 
1099 1 36.132806379999998 23.771798310000008 15.76228167 -9.9467532012620374e-05 9.9225311816254769e-05 1.5307690004462415e-08 
1100 1 34.231335459999997 23.771509050000002 18.187248159999999 9.9169095702844601e-05 -9.9508710677693665e-05 -1.5080306003945054e-08 
1101 2 36.13299628999998 21.869925680000001 15.340736579999998 -0.00010886276155867847 -0.00026059213669441753 1.1905841749715138 
1102 2 34.23114545 25.673381580000001 18.608793249999998 0.00010897096836597758 0.00026074251275460527 -1.1905841750635897 
1103 2 36.132939650000012 23.771697899999999 17.765703029999997 -0.00026100313531485231 -0.00010899592629414617 1.190583602691291 
1104 2 34.231202080000017 23.771609359999999 16.183826799999999 0.00026119336477502426 0.00010912894910549732 -1.190583602826603 
1105 1 9.5084664500000002 27.575275140000009 15.76228167 -9.9467532039043682e-05 9.9225311773670777e-05 1.5307701023425935e-08 
1106 1 7.6069955300000007 27.574985880000003 18.187248159999999 9.91690956560487e-05 -9.9508710679152568e-05 -1.5080292681268759e-08 
1107 2 9.5086563599999998 25.673402510000003 15.340736579999998 -0.00010886276162433428 -0.00026059213666344838 1.1905841749715087 
1108 2 7.60680552 29.476858410000002 18.608793249999998 0.00010897096835103121 0.00026074251272378834 -1.1905841750635449 
1109 2 9.5085997199999994 27.575174730000001 17.765703029999997 -0.00026100313523553034 -0.00010899592629856625 1.1905836026912631 
1110 2 7.6068621499999995 27.57508619 16.183826799999999 0.00026119336491758904 0.00010912894910313289 -1.1905836028266339 
1111 1 13.311943280000001 27.575275140000009 15.76228167 -9.9467532055247734e-05 9.9225311763138186e-05 1.5307690898712367e-08 
1112 1 11.41047236 27.574985880000003 18.187248159999999 9.9169095665603557e-05 -9.9508710687423729e-05 -1.5080284354596074e-08 
1113 2 13.312133190000001 25.673402510000003 15.340736579999998 -0.00010886276164282817 -0.00026059213665038288 1.1905841749715125 
1114 2 11.410282349999999 29.476858410000002 18.608793249999998 0.0001089709683677019 0.00026074251272043686 -1.1905841750635571 
1115 2 13.31207655 27.575174730000001 17.765703029999997 -0.00026100313524879404 -0.00010899592629718411 1.1905836026912644 
1116 2 11.410338979999999 27.57508619 16.183826799999999 0.00026119336492529122 0.00010912894908761406 -1.1905836028266004 
1117 1 17.115420110000002 27.575275140000009 15.76228167 -9.9467532044522156e-05 9.9225311771422575e-05 1.5307698914002188e-08 
1118 1 15.213949190000001 27.574985880000003 18.187248159999999 9.9169095668462978e-05 -9.9508710695539633e-05 -1.5080278030465131e-08 
1119 2 17.115610020000002 25.673402510000003 15.340736579999998 -0.00010886276162653716 -0.00026059213665934142 1.1905841749715189 
1120 2 15.21375918 29.476858410000002 18.608793249999998 0.00010897096835758326 0.00026074251272874049 -1.1905841750635502 
1121 2 17.115553380000001 27.575174730000001 17.765703029999997 -0.00026100313525230425 -0.00010899592631213872 1.1905836026912708 
1122 2 15.21381581 27.57508619 16.183826799999999 0.00026119336491329777 0.00010912894908844673 -1.1905836028265986 
1123 1 20.91889694 27.575275140000009 15.76228167 -9.9467532049645228e-05 9.922531179284988e-05 1.530769788704589e-08 
1124 1 19.017426020000002 27.574985880000003 18.187248159999999 9.9169095672509993e-05 -9.9508710678541945e-05 -1.5080273030321223e-08 
1125 2 20.919086849999992 25.673402510000003 15.340736579999998 -0.00010886276159561349 -0.00026059213666086972 1.1905841749715216 
1126 2 19.017236009999991 29.476858410000002 18.608793249999998 0.00010897096838601516 0.00026074251272611981 -1.1905841750635537 
1127 2 20.919030209999999 27.575174730000001 17.765703029999997 -0.00026100313522349657 -0.00010899592630625454 1.1905836026912671 
1128 2 19.017292640000001 27.57508619 16.183826799999999 0.00026119336489831496 0.00010912894908320092 -1.190583602826587 
1129 1 24.722373770000004 27.575275140000009 15.76228167 -9.9467532049600532e-05 9.9225311765982482e-05 1.5307679429588106e-08 
1130 1 22.82090285 27.574985880000003 18.187248159999999 9.9169095677294834e-05 -9.9508710685869417e-05 -1.5080282633750386e-08 
1131 2 24.722563680000007 25.673402510000003 15.340736579999998 -0.0001088627616734254 -0.00026059213665969531 1.1905841749715269 
1132 2 22.820712840000002 29.476858410000002 18.608793249999998 0.00010897096834598012 0.00026074251272323323 -1.1905841750635673 
1133 2 24.72250704 27.575174730000001 17.765703029999997 -0.00026100313523679582 -0.00010899592630886357 1.1905836026912784 
1134 2 22.820769470000002 27.57508619 16.183826799999999 0.0002611933648963055 0.00010912894907182114 -1.1905836028266024 
1135 1 28.525850600000005 27.575275140000009 15.76228167 -9.9467532033247023e-05 9.9225311792187581e-05 1.5307688016848783e-08 
1136 1 26.624379680000001 27.574985880000003 18.187248159999999 9.9169095672158345e-05 -9.950871068264977e-05 -1.5080282245172327e-08 
1137 2 28.526040510000009 25.673402510000003 15.340736579999998 -0.00010886276167469851 -0.00026059213665940805 1.19058417497153 
1138 2 26.624189670000003 29.476858410000002 18.608793249999998 0.00010897096832087737 0.00026074251271135385 -1.1905841750635477 
1139 2 28.525983870000001 27.575174730000001 17.765703029999997 -0.00026100313524299356 -0.00010899592632176991 1.1905836026912742 
1140 2 26.624246300000003 27.57508619 16.183826799999999 0.00026119336488681115 0.00010912894907806614 -1.1905836028265953 
1141 1 32.329327429999999 27.575275140000009 15.76228167 -9.9467532050367957e-05 9.9225311770284597e-05 1.5307666967334654e-08 
1142 1 30.427856510000002 27.574985880000003 18.187248159999999 9.9169095676072613e-05 -9.9508710658984239e-05 -1.5080282168844494e-08 
1143 2 32.329517339999995 25.673402510000003 15.340736579999998 -0.00010886276161971992 -0.00026059213670592135 1.1905841749715147 
1144 2 30.427666500000001 29.476858410000002 18.608793249999998 0.00010897096835039977 0.00026074251269968284 -1.1905841750635433 
1145 2 32.329460700000013 27.575174730000001 17.765703029999997 -0.00026100313535438319 -0.00010899592631575736 1.190583602691303 
1146 2 30.427723130000004 27.57508619 16.183826799999999 0.00026119336489626582 0.00010912894907276309 -1.19058360282654 
1147 1 36.13280426 27.575275140000009 15.76228167 -9.9467532035435458e-05 9.9225311760930968e-05 1.5307694556376816e-08 
1148 1 34.231333340000006 27.574985880000003 18.187248159999999 9.916909568014054e-05 -9.9508710689394375e-05 -1.508029273677991e-08 
1149 2 36.132994170000003 25.673402510000003 15.340736579999998 -0.00010886276164149417 -0.00026059213663349665 1.190584174971516 
1150 2 34.231143330000002 29.476858410000002 18.608793249999998 0.00010897096837333975 0.00026074251275893037 -1.1905841750635597 
1151 2 36.132937530000014 27.575174730000001 17.765703029999997 -0.00026100313534138664 -0.00010899592628556276 1.1905836026912475 
1152 2 34.231199959999991 27.57508619 16.183826799999999 0.00026119336501205515 0.00010912894908850918 -1.1905836028265913 
