ITEM: TIMESTEP
0
ITEM: NUMBER OF ATOMS
1152
ITEM: BOX BOUNDS xy xz yz pp pp pp
-1.2720000000000000e-05 3.8034676560000001e+01 -1.2720000000000000e-05
0.0000000000000000e+00 3.0427727139999998e+01 7.6068619200000001e+00
0.0000000000000000e+00 1.9399731119999998e+01 7.6068661600000000e+00
ITEM: ATOMS id type x y z fx fy fz 
1 1 3.8033306100000002 2.8527413699999995 1.21248333 -9.9467532043595597e-05 9.9225311810238748e-05 1.5307703882250223e-08 
2 1 1.9018596900000002 2.8524521100000007 3.6374498200000001 9.9169095689743969e-05 -9.9508710648843479e-05 -1.5080282467216932e-08 
3 2 3.8035205200000006 0.95086874000000032 0.7909382399999999 -0.00010886276161434921 -0.00026059213665822339 1.1905841749714867 
4 2 1.9016696799999993 4.7543246400000001 4.05899491 0.00010897096835507658 0.00026074251273834267 -1.1905841750635682 
5 2 3.8034638799999998 2.8526409600000004 3.215904689999999 -0.00026100313523852448 -0.00010899592630573413 1.1905836026912535 
6 2 1.9017263099999999 2.8525524199999999 1.6340284599999999 0.00026119336491603473 0.000109128949096024 -1.1905836028265986 
7 1 7.6068074400000008 2.8527413699999995 1.21248333 -9.9467532039146031e-05 9.9225311815648483e-05 1.5307706003817034e-08 
8 1 5.7053365199999986 2.8524521100000007 3.6374498200000001 9.9169095689133346e-05 -9.9508710668678307e-05 -1.5080276610790477e-08 
9 2 7.6069973500000003 0.95086874000000032 0.7909382399999999 -0.00010886276163177798 -0.00026059213665562196 1.1905841749714923 
10 2 5.7051465099999978 4.7543246400000001 4.05899491 0.00010897096836223752 0.0002607425127414964 -1.1905841750635726 
11 2 7.6069407099999999 2.8526409600000004 3.215904689999999 -0.00026100313524754504 -0.00010899592630488411 1.190583602691258 
12 2 5.7052031400000001 2.8525524199999999 1.6340284599999999 0.00026119336491418899 0.00010912894908973042 -1.1905836028266064 
13 1 11.41028427 2.8527413699999995 1.21248333 -9.9467532035177553e-05 9.922531181072447e-05 1.5307712042389454e-08 
14 1 9.5088133500000005 2.8524521100000007 3.6374498200000001 9.9169095678826771e-05 -9.9508710663787255e-05 -1.5080285537894325e-08 
15 2 11.410474180000001 0.95086874000000032 0.7909382399999999 -0.00010886276163573037 -0.00026059213665530212 1.190584174971498 
16 2 9.5086233399999998 4.7543246400000001 4.05899491 0.0001089709683542283 0.00026074251274472028 -1.1905841750635702 
17 2 11.410417540000001 2.8526409600000004 3.215904689999999 -0.00026100313524845533 -0.00010899592630295163 1.1905836026912533 
18 2 9.5086799699999993 2.8525524199999999 1.6340284599999999 0.00026119336491530615 0.00010912894909251292 -1.1905836028266101 
19 1 15.213761099999999 2.8527413699999995 1.21248333 -9.9467532038636402e-05 9.9225311813722072e-05 1.5307700496069998e-08 
20 1 13.312290180000002 2.8524521100000007 3.6374498200000001 9.9169095678011357e-05 -9.9508710663998023e-05 -1.5080287490976119e-08 
21 2 15.213951010000002 0.95086874000000032 0.7909382399999999 -0.00010886276163506777 -0.00026059213665952097 1.1905841749714905 
22 2 13.312100170000004 4.7543246400000001 4.05899491 0.00010897096833235994 0.00026074251274048159 -1.190584175063564 
23 2 15.213894369999998 2.8526409600000004 3.215904689999999 -0.00026100313521461738 -0.00010899592630543575 1.1905836026912784 
24 2 13.312156800000004 2.8525524199999999 1.6340284599999999 0.00026119336487654614 0.00010912894909079207 -1.1905836028266186 
25 1 19.01723793 2.8527413699999995 1.21248333 -9.9467532037163581e-05 9.9225311822048745e-05 1.5307707657008507e-08 
26 1 17.115767010000006 2.8524521100000007 3.6374498200000001 9.9169095679186279e-05 -9.95087106628878e-05 -1.5080280468815488e-08 
27 2 19.017427840000007 0.95086874000000032 0.7909382399999999 -0.00010886276166988381 -0.00026059213664653136 1.1905841749715054 
28 2 17.115577000000002 4.7543246400000001 4.05899491 0.00010897096834684033 0.00026074251274181559 -1.1905841750635715 
29 2 19.017371199999999 2.8526409600000004 3.215904689999999 -0.0002610031352155576 -0.00010899592630199406 1.1905836026912491 
30 2 17.115633629999998 2.8525524199999999 1.6340284599999999 0.00026119336492722435 0.00010912894909370641 -1.1905836028266215 
31 1 22.820714760000008 2.8527413699999995 1.21248333 -9.9467532046490417e-05 9.9225311806398395e-05 1.5307716422528962e-08 
32 1 20.919243840000007 2.8524521100000007 3.6374498200000001 9.9169095669472289e-05 -9.9508710655449306e-05 -1.5080275778123209e-08 
33 2 22.820904670000012 0.95086874000000032 0.7909382399999999 -0.00010886276167820959 -0.0002605921366624983 1.1905841749714909 
34 2 20.91905383000001 4.7543246400000001 4.05899491 0.00010897096828827151 0.0002607425127448687 -1.1905841750635655 
35 2 22.820848030000001 2.8526409600000004 3.215904689999999 -0.00026100313522860966 -0.00010899592630521371 1.1905836026912637 
36 2 20.919110460000006 2.8525524199999999 1.6340284599999999 0.00026119336485632013 0.00010912894908979287 -1.1905836028266199 
37 1 26.624191590000002 2.8527413699999995 1.21248333 -9.9467532025790395e-05 9.9225311798969984e-05 1.5307702938560652e-08 
38 1 24.722720670000005 2.8524521100000007 3.6374498200000001 9.9169095681037392e-05 -9.950871066806099e-05 -1.5080298402820463e-08 
39 2 26.624381500000005 0.95086874000000032 0.7909382399999999 -0.00010886276165491052 -0.00026059213664153189 1.1905841749714574 
40 2 24.722530660000007 4.7543246400000001 4.05899491 0.00010897096830492226 0.0002607425127406826 -1.1905841750635677 
41 2 26.624324859999998 2.8526409600000004 3.215904689999999 -0.00026100313520088098 -0.00010899592630717395 1.1905836026912402 
42 2 24.72258729 2.8525524199999999 1.6340284599999999 0.0002611933649204895 0.0001091289490893142 -1.1905836028266026 
43 1 30.427668420000003 2.8527413699999995 1.21248333 -9.9467532028385541e-05 9.9225311819106654e-05 1.5307716760837309e-08 
44 1 28.526197500000002 2.8524521100000007 3.6374498200000001 9.9169095684581432e-05 -9.9508710658391397e-05 -1.5080302173675619e-08 
45 2 30.427858330000014 0.95086874000000032 0.7909382399999999 -0.00010886276168727005 -0.00026059213666707048 1.1905841749714914 
46 2 28.526007490000008 4.7543246400000001 4.05899491 0.00010897096831786329 0.00026074251273962637 -1.1905841750635779 
47 2 30.427801689999999 2.8526409600000004 3.215904689999999 -0.00026100313524779484 -0.00010899592630906826 1.1905836026912548 
48 2 28.526064120000001 2.8525524199999999 1.6340284599999999 0.00026119336489922526 0.00010912894910017346 -1.1905836028266052 
49 1 3.8033284900000002 6.6562181999999979 1.21248333 -9.9467532038988171e-05 9.9225311806358171e-05 1.5307724338109452e-08 
50 1 1.9018575700000002 6.6559289400000008 3.6374498200000001 9.9169095683471209e-05 -9.9508710671158962e-05 -1.5080275028722667e-08 
51 2 3.8035184000000024 4.7543455700000008 0.7909382399999999 -0.00010886276163647735 -0.00026059213665425088 1.1905841749714934 
52 2 1.9016675599999993 8.5578014700000011 4.05899491 0.00010897096835107978 0.00026074251272355155 -1.1905841750635768 
53 2 3.8034617599999998 6.6561177900000006 3.215904689999999 -0.000261003135234859 -0.00010899592628680309 1.1905836026912517 
54 2 1.9017241899999999 6.6560292499999996 1.6340284599999999 0.00026119336491692291 0.00010912894910933973 -1.1905836028266155 
55 1 7.6068053200000003 6.6562181999999979 1.21248333 -9.9467532041272802e-05 9.9225311811686564e-05 1.5307720859988883e-08 
56 1 5.7053343999999999 6.6559289400000008 3.6374498200000001 9.9169095682995895e-05 -9.9508710671178911e-05 -1.5080279233692373e-08 
57 2 7.6069952299999999 4.7543455700000008 0.7909382399999999 -0.00010886276162866762 -0.00026059213666063596 1.1905841749714943 
58 2 5.7051443899999992 8.5578014700000011 4.05899491 0.00010897096835412248 0.00026074251273056331 -1.1905841750635724 
59 2 7.6069385900000004 6.6561177900000006 3.215904689999999 -0.00026100313524173024 -0.0001089959262910035 1.1905836026912435 
60 2 5.7052010199999996 6.6560292499999996 1.6340284599999999 0.00026119336491357836 0.0001091289491067203 -1.1905836028266108 
61 1 11.410282150000004 6.6562181999999979 1.21248333 -9.9467532038389556e-05 9.9225311806071942e-05 1.5307734415118124e-08 
62 1 9.5088112299999992 6.6559289400000008 3.6374498200000001 9.916909568127925e-05 -9.9508710673987429e-05 -1.5080269900642903e-08 
63 2 11.410472060000002 4.7543455700000008 0.7909382399999999 -0.00010886276163191646 -0.00026059213666021486 1.1905841749715012 
64 2 9.508621220000002 8.5578014700000011 4.05899491 0.00010897096834845514 0.00026074251272507762 -1.1905841750635724 
65 2 11.410415420000003 6.6561177900000006 3.215904689999999 -0.00026100313525125127 -0.00010899592628904609 1.1905836026912531 
66 2 9.5086778500000033 6.6560292499999996 1.6340284599999999 0.00026119336489017217 0.00010912894910361515 -1.1905836028266146 
67 1 15.21375898 6.6562181999999979 1.21248333 -9.9467532060660952e-05 9.9225311805610505e-05 1.5307729519728475e-08 
68 1 13.31228806 6.6559289400000008 3.6374498200000001 9.9169095687121772e-05 -9.9508710682386092e-05 -1.5080285579310848e-08 
69 2 15.213948889999999 4.7543455700000008 0.7909382399999999 -0.00010886276161878651 -0.00026059213665143022 1.1905841749714896 
70 2 13.312098049999999 8.5578014700000011 4.05899491 0.00010897096835023627 0.00026074251272127646 -1.1905841750635611 
71 2 15.213892249999999 6.6561177900000006 3.215904689999999 -0.00026100313522292584 -0.00010899592627645893 1.1905836026912568 
72 2 13.312154680000004 6.6560292499999996 1.6340284599999999 0.00026119336488047062 0.00010912894911693782 -1.1905836028266186 
73 1 19.01723581000001 6.6562181999999979 1.21248333 -9.9467532049440991e-05 9.9225311793321724e-05 1.5307713189041672e-08 
74 1 17.115764889999998 6.6559289400000008 3.6374498200000001 9.9169095691872936e-05 -9.9508710687506996e-05 -1.5080265078348809e-08 
75 2 19.017425720000006 4.7543455700000008 0.7909382399999999 -0.00010886276166344853 -0.00026059213664986203 1.190584174971504 
76 2 17.11557488 8.5578014700000011 4.05899491 0.0001089709683449716 0.00026074251275213373 -1.1905841750635862 
77 2 19.017369079999998 6.6561177900000006 3.215904689999999 -0.00026100313520058 -0.00010899592629100285 1.1905836026912338 
78 2 17.11563151 6.6560292499999996 1.6340284599999999 0.00026119336491729425 0.00010912894911188631 -1.1905836028266485 
79 1 22.820712640000011 6.6562181999999979 1.21248333 -9.9467532044077172e-05 9.9225311812771756e-05 1.5307724878763806e-08 
80 1 20.919241720000006 6.6559289400000008 3.6374498200000001 9.9169095680164447e-05 -9.9508710681518731e-05 -1.5080280232893095e-08 
81 2 22.820902550000007 4.7543455700000008 0.7909382399999999 -0.00010886276165062922 -0.00026059213665955246 1.1905841749714772 
82 2 20.919051710000002 8.5578014700000011 4.05899491 0.00010897096832858757 0.00026074251272319941 -1.1905841750635651 
83 2 22.820845910000003 6.6561177900000006 3.215904689999999 -0.00026100313522781082 -0.00010899592628371702 1.1905836026912617 
84 2 20.919108340000015 6.6560292499999996 1.6340284599999999 0.00026119336479176348 0.00010912894910022897 -1.1905836028266135 
85 1 26.624189469999997 6.6562181999999979 1.21248333 -9.9467532029079431e-05 9.9225311811916103e-05 1.5307742975978478e-08 
86 1 24.722718550000007 6.6559289400000008 3.6374498200000001 9.9169095680810143e-05 -9.9508710670678389e-05 -1.5080297849009994e-08 
87 2 26.624379379999997 4.7543455700000008 0.7909382399999999 -0.00010886276162276262 -0.00026059213666523688 1.1905841749714738 
88 2 24.722528539999999 8.5578014700000011 4.05899491 0.00010897096832939747 0.00026074251273187931 -1.190584175063552 
89 2 26.624322739999997 6.6561177900000006 3.215904689999999 -0.00026100313518663543 -0.0001089959262866513 1.1905836026912437 
90 2 24.722585170000009 6.6560292499999996 1.6340284599999999 0.0002611933648437037 0.00010912894909199505 -1.1905836028266081 
91 1 30.427666299999999 6.6562181999999979 1.21248333 -9.9467532025721006e-05 9.9225311804769598e-05 1.5307726641822228e-08 
92 1 28.526195380000001 6.6559289400000008 3.6374498200000001 9.9169095673756757e-05 -9.9508710684297758e-05 -1.508027716590199e-08 
93 2 30.427856210000012 4.7543455700000008 0.7909382399999999 -0.0001088627616831761 -0.00026059213665835697 1.1905841749714796 
94 2 28.52600537 8.5578014700000011 4.05899491 0.00010897096833755587 0.00026074251271937542 -1.1905841750635708 
95 2 30.427799569999998 6.6561177900000006 3.215904689999999 -0.000261003135228699 -0.00010899592628433458 1.1905836026912535 
96 2 28.526062000000003 6.6560292499999996 1.6340284599999999 0.00026119336486585092 0.00010912894907877044 -1.1905836028266121 
97 1 3.8033263700000002 10.459695029999999 1.21248333 -9.9467532033992168e-05 9.9225311800727801e-05 1.5307701273226115e-08 
98 1 1.9018554499999993 10.459405769999998 3.6374498200000001 9.91690956714808e-05 -9.9508710668233134e-05 -1.5080278359391741e-08 
99 2 3.8035162800000006 8.5578224000000009 0.7909382399999999 -0.00010886276162675596 -0.00026059213666766842 1.190584174971496 
100 2 1.9016654399999997 12.3612783 4.05899491 0.00010897096834816544 0.00026074251273652317 -1.1905841750635919 
101 2 3.8034596399999998 10.459594619999999 3.215904689999999 -0.00026100313523377827 -0.00010899592629740897 1.1905836026912517 
102 2 1.9017220699999999 10.459506080000001 1.6340284599999999 0.00026119336492369527 0.00010912894908899501 -1.1905836028265919 
103 1 7.6068032000000008 10.459695029999999 1.21248333 -9.9467532043730905e-05 9.9225311798168515e-05 1.530769612023003e-08 
104 1 5.7053322800000004 10.459405769999998 3.6374498200000001 9.9169095685476549e-05 -9.9508710667631754e-05 -1.5080288406910114e-08 
105 2 7.6069931100000003 8.5578224000000009 0.7909382399999999 -0.00010886276163201043 -0.00026059213668225506 1.1905841749714938 
106 2 5.7051422699999979 12.3612783 4.05899491 0.00010897096836832987 0.00026074251273681395 -1.1905841750635955 
107 2 7.6069364700000008 10.459594619999999 3.215904689999999 -0.00026100313525277696 -0.00010899592629068638 1.1905836026912706 
108 2 5.7051989000000001 10.459506080000001 1.6340284599999999 0.00026119336490551537 0.00010912894909291667 -1.1905836028265961 
109 1 11.410280029999999 10.459695029999999 1.21248333 -9.9467532047480022e-05 9.922531181173744e-05 1.5307707823541961e-08 
110 1 9.5088091100000014 10.459405769999998 3.6374498200000001 9.9169095671430087e-05 -9.9508710667063632e-05 -1.5080289429763384e-08 
111 2 11.41046994 8.5578224000000009 0.7909382399999999 -0.00010886276162275129 -0.00026059213665578513 1.1905841749715154 
112 2 9.5086190999999989 12.3612783 4.05899491 0.00010897096835495168 0.0002607425127288018 -1.1905841750635979 
113 2 11.410413300000004 10.459594619999999 3.215904689999999 -0.0002610031352681657 -0.00010899592628611462 1.1905836026912475 
114 2 9.5086757299999949 10.459506080000001 1.6340284599999999 0.00026119336496870354 0.00010912894909347352 -1.1905836028265999 
115 1 15.213756859999998 10.459695029999999 1.21248333 -9.9467532022626856e-05 9.9225311816760766e-05 1.5307725975688413e-08 
116 1 13.312285940000006 10.459405769999998 3.6374498200000001 9.9169095667365169e-05 -9.9508710668964239e-05 -1.5080268644940276e-08 
117 2 15.213946770000007 8.5578224000000009 0.7909382399999999 -0.00010886276164626083 -0.00026059213665139064 1.1905841749715047 
118 2 13.312095929999998 12.3612783 4.05899491 0.00010897096835754336 0.00026074251273545956 -1.1905841750635899 
119 2 15.213890129999998 10.459594619999999 3.215904689999999 -0.00026100313520539559 -0.00010899592628302226 1.1905836026912329 
120 2 13.312152559999999 10.459506080000001 1.6340284599999999 0.00026119336492165784 0.00010912894908633904 -1.1905836028266226 
121 1 19.017233690000005 10.459695029999999 1.21248333 -9.9467532035926682e-05 9.9225311812543003e-05 1.5307691225707742e-08 
122 1 17.11576277 10.459405769999998 3.6374498200000001 9.9169095662658186e-05 -9.950871065394877e-05 -1.5080264259559328e-08 
123 2 19.017423600000008 8.5578224000000009 0.7909382399999999 -0.00010886276167785299 -0.00026059213668707434 1.1905841749715109 
124 2 17.11557276000001 12.3612783 4.05899491 0.00010897096832180805 0.00026074251272044683 -1.1905841750635953 
125 2 19.017366960000007 10.459594619999999 3.215904689999999 -0.00026100313529553573 -0.00010899592629219483 1.1905836026912626 
126 2 17.115629390000002 10.459506080000001 1.6340284599999999 0.00026119336489981246 0.00010912894910100439 -1.1905836028265957 
127 1 22.820710520000006 10.459695029999999 1.21248333 -9.9467532015700457e-05 9.9225311810843177e-05 1.5307696494498314e-08 
128 1 20.919239600000001 10.459405769999998 3.6374498200000001 9.9169095704230577e-05 -9.9508710675446196e-05 -1.5080283854995713e-08 
129 2 22.820900430000009 8.5578224000000009 0.7909382399999999 -0.00010886276166346617 -0.00026059213666650458 1.1905841749714847 
130 2 20.919049590000011 12.3612783 4.05899491 0.00010897096829931563 0.00026074251273405921 -1.1905841750635782 
131 2 22.820843790000005 10.459594619999999 3.215904689999999 -0.00026100313527246911 -0.00010899592629123487 1.1905836026912597 
132 2 20.919106220000003 10.459506080000001 1.6340284599999999 0.00026119336489526836 0.00010912894910215733 -1.1905836028266132 
133 1 26.62418735 10.459695029999999 1.21248333 -9.9467532032306016e-05 9.9225311826720342e-05 1.5307704451239523e-08 
134 1 24.722716430000002 10.459405769999998 3.6374498200000001 9.9169095671538046e-05 -9.9508710665717677e-05 -1.508028645838197e-08 
135 2 26.624377259999999 8.5578224000000009 0.7909382399999999 -0.00010886276160855524 -0.00026059213666177654 1.1905841749714949 
136 2 24.722526420000008 12.3612783 4.05899491 0.00010897096829701018 0.000260742512732859 -1.1905841750635644 
137 2 26.624320619999999 10.459594619999999 3.215904689999999 -0.00026100313520680679 -0.0001089959262883133 1.1905836026912457 
138 2 24.722583050000004 10.459506080000001 1.6340284599999999 0.00026119336488610034 0.00010912894910154866 -1.1905836028265999 
139 1 30.427664180000001 10.459695029999999 1.21248333 -9.9467532016117577e-05 9.9225311806350528e-05 1.530772042457329e-08 
140 1 28.526193260000003 10.459405769999998 3.6374498200000001 9.9169095687801079e-05 -9.9508710667448226e-05 -1.508027222540953e-08 
141 2 30.427854089999997 8.5578224000000009 0.7909382399999999 -0.00010886276162049013 -0.00026059213666268104 1.1905841749715012 
142 2 28.526003250000016 12.3612783 4.05899491 0.00010897096828293984 0.00026074251274197735 -1.1905841750635862 
143 2 30.42779745 10.459594619999999 3.215904689999999 -0.00026100313521704166 -0.00010899592629826121 1.1905836026912544 
144 2 28.526059880000005 10.459506080000001 1.6340284599999999 0.00026119336485194711 0.00010912894908481486 -1.1905836028265999 
145 1 3.8033242500000002 14.26317186 1.21248333 -9.9467532053143515e-05 9.9225311810802858e-05 1.530769744295668e-08 
146 1 1.9018533300000002 14.262882600000003 3.6374498200000001 9.9169095674089824e-05 -9.9508710676888428e-05 -1.5080298343406184e-08 
147 2 3.8035141600000006 12.36129923 0.7909382399999999 -0.0001088627616165766 -0.00026059213665753493 1.190584174971512 
148 2 1.9016633199999997 16.16475513 4.05899491 0.00010897096836202241 0.00026074251275439559 -1.1905841750635777 
149 2 3.8034575199999998 14.263071450000004 3.215904689999999 -0.00026100313522976239 -0.00010899592631406058 1.1905836026912491 
150 2 1.9017199499999999 14.26298291 1.6340284599999999 0.00026119336491359224 0.00010912894908848028 -1.1905836028265966 
151 1 7.6068010800000012 14.26317186 1.21248333 -9.946753204812149e-05 9.9225311805533229e-05 1.5307712653445799e-08 
152 1 5.7053301599999999 14.262882600000003 3.6374498200000001 9.9169095699565973e-05 -9.9508710670214161e-05 -1.5080295664993137e-08 
153 2 7.6069909899999999 12.36129923 0.7909382399999999 -0.00010886276163433843 -0.00026059213664206548 1.1905841749715116 
154 2 5.7051401499999992 16.16475513 4.05899491 0.0001089709683540635 0.00026074251274941563 -1.1905841750635837 
155 2 7.6069343499999995 14.263071450000004 3.215904689999999 -0.00026100313524295843 -0.00010899592631960877 1.1905836026912535 
156 2 5.7051967799999996 14.26298291 1.6340284599999999 0.00026119336490970646 0.00010912894909013312 -1.1905836028266101 
157 1 11.41027791 14.26317186 1.21248333 -9.9467532042631307e-05 9.9225311797476279e-05 1.5307725143021145e-08 
158 1 9.5088069900000001 14.262882600000003 3.6374498200000001 9.916909567706825e-05 -9.9508710674490891e-05 -1.5080296864498517e-08 
159 2 11.410467820000004 12.36129923 0.7909382399999999 -0.00010886276164581084 -0.00026059213664848585 1.1905841749715209 
160 2 9.5086169799999993 16.16475513 4.05899491 0.00010897096834727726 0.00026074251275768121 -1.1905841750635864 
161 2 11.410411180000001 14.263071450000004 3.215904689999999 -0.00026100313525010939 -0.00010899592632234215 1.1905836026912278 
162 2 9.5086736099999953 14.26298291 1.6340284599999999 0.00026119336495733936 0.00010912894908908814 -1.1905836028266159 
163 1 15.213754739999995 14.26317186 1.21248333 -9.9467532045998324e-05 9.9225311808053755e-05 1.5307711209722186e-08 
164 1 13.312283820000001 14.262882600000003 3.6374498200000001 9.9169095662971697e-05 -9.9508710674808698e-05 -1.508027469565576e-08 
165 2 15.21394465 12.36129923 0.7909382399999999 -0.00010886276162119763 -0.00026059213664420244 1.1905841749715296 
166 2 13.31209381 16.16475513 4.05899491 0.00010897096834547142 0.00026074251274720733 -1.1905841750635826 
167 2 15.213888009999998 14.263071450000004 3.215904689999999 -0.00026100313520426542 -0.00010899592632790953 1.1905836026912224 
168 2 13.31215044 14.26298291 1.6340284599999999 0.00026119336490547634 0.00010912894908719667 -1.1905836028266137 
169 1 19.017231570000014 14.26317186 1.21248333 -9.9467532049507805e-05 9.9225311797256619e-05 1.5307717871060333e-08 
170 1 17.115760650000006 14.262882600000003 3.6374498200000001 9.9169095684338557e-05 -9.9508710687229454e-05 -1.508025804231039e-08 
171 2 19.017421480000007 12.36129923 0.7909382399999999 -0.00010886276166485975 -0.00026059213665007594 1.1905841749715169 
172 2 17.115570640000001 16.16475513 4.05899491 0.0001089709683538588 0.00026074251275096344 -1.190584175063591 
173 2 19.017364839999999 14.263071450000004 3.215904689999999 -0.00026100313518949295 -0.0001089959263136939 1.1905836026912349 
174 2 17.115627270000012 14.26298291 1.6340284599999999 0.00026119336482113235 0.00010912894909127435 -1.1905836028266461 
175 1 22.820708400000008 14.26317186 1.21248333 -9.9467532047699058e-05 9.9225311797157537e-05 1.5307724963468795e-08 
176 1 20.91923748 14.262882600000003 3.6374498200000001 9.9169095695643438e-05 -9.9508710672398463e-05 -1.5080291182467676e-08 
177 2 22.820898310000008 12.36129923 0.7909382399999999 -0.00010886276166436129 -0.00026059213663971677 1.1905841749715182 
178 2 20.919047470000002 16.16475513 4.05899491 0.00010897096833010177 0.00026074251275046232 -1.1905841750635768 
179 2 22.82084167 14.263071450000004 3.215904689999999 -0.00026100313521891646 -0.00010899592630642563 1.1905836026912477 
180 2 20.919104100000013 14.26298291 1.6340284599999999 0.00026119336480800396 0.00010912894909847085 -1.1905836028266068 
181 1 26.624185230000009 14.26317186 1.21248333 -9.9467532045694612e-05 9.9225311791680906e-05 1.5307711251355549e-08 
182 1 24.722714310000001 14.262882600000003 3.6374498200000001 9.9169095687157496e-05 -9.9508710684261965e-05 -1.5080283815530754e-08 
183 2 26.624375140000005 12.36129923 0.7909382399999999 -0.00010886276163206421 -0.0002605921366499376 1.1905841749715071 
184 2 24.7225243 16.16475513 4.05899491 0.00010897096832123733 0.00026074251274639179 -1.1905841750635766 
185 2 26.62431849999999 14.263071450000004 3.215904689999999 -0.00026100313510862144 -0.00010899592631706805 1.1905836026912335 
186 2 24.722580930000014 14.26298291 1.6340284599999999 0.00026119336479625554 0.00010912894909327926 -1.1905836028266459 
187 1 30.42766206000001 14.26317186 1.21248333 -9.9467532038155504e-05 9.9225311801333219e-05 1.5307731193736629e-08 
188 1 28.526191140000002 14.262882600000003 3.6374498200000001 9.9169095697237974e-05 -9.9508710668836059e-05 -1.5080297899316975e-08 
189 2 30.427851969999999 12.36129923 0.7909382399999999 -0.00010886276162003217 -0.00026059213666138623 1.1905841749715014 
190 2 28.526001130000008 16.16475513 4.05899491 0.00010897096831508774 0.00026074251276080084 -1.1905841750635948 
191 2 30.427795329999999 14.263071450000004 3.215904689999999 -0.00026100313520760476 -0.0001089959263147668 1.1905836026912573 
192 2 28.526057760000015 14.26298291 1.6340284599999999 0.00026119336478702682 0.00010912894911632701 -1.190583602826605 
193 1 3.8033221300000002 18.066648690000005 1.21248333 -9.94675320321603e-05 9.9225311806229802e-05 1.5307719175572387e-08 
194 1 1.9018512100000002 18.066359430000002 3.6374498200000001 9.9169095695350595e-05 -9.9508710692588001e-05 -1.5080283355395352e-08 
195 2 3.8035120400000024 16.164776060000005 0.7909382399999999 -0.00010886276163012132 -0.00026059213668824376 1.1905841749715007 
196 2 1.9016611999999993 19.968231960000001 4.05899491 0.00010897096834387721 0.00026074251276109531 -1.1905841750635757 
197 2 3.8034553999999998 18.066548279999999 3.215904689999999 -0.00026100313524052288 -0.0001089959262736773 1.1905836026912548 
198 2 1.9017178299999997 18.066459739999999 1.6340284599999999 0.0002611933649253606 0.00010912894912107687 -1.1905836028266146 
199 1 7.6067989600000008 18.066648690000005 1.21248333 -9.9467532041392498e-05 9.922531180753838e-05 1.5307716916528741e-08 
200 1 5.7053280400000004 18.066359430000002 3.6374498200000001 9.9169095678055402e-05 -9.950871068334366e-05 -1.5080291418390068e-08 
201 2 7.6069888700000012 16.164776060000005 0.7909382399999999 -0.00010886276163205727 -0.00026059213668671688 1.1905841749715 
202 2 5.7051380299999979 19.968231960000001 4.05899491 0.00010897096835229755 0.00026074251274899908 -1.190584175063585 
203 2 7.60693223 18.066548279999999 3.215904689999999 -0.00026100313523681057 -0.00010899592627626865 1.1905836026912622 
204 2 5.7051946600000001 18.066459739999999 1.6340284599999999 0.00026119336491831763 0.00010912894911269296 -1.1905836028266112 
205 1 11.41027579 18.066648690000005 1.21248333 -9.9467532043389612e-05 9.9225311807248084e-05 1.5307741369624539e-08 
206 1 9.5088048700000058 18.066359430000002 3.6374498200000001 9.916909566840645e-05 -9.9508710677952993e-05 -1.5080289934503541e-08 
207 2 11.410465700000001 16.164776060000005 0.7909382399999999 -0.00010886276163229699 -0.00026059213669936496 1.1905841749715074 
208 2 9.5086148600000016 19.968231960000001 4.05899491 0.00010897096834160819 0.00026074251274855732 -1.1905841750635833 
209 2 11.410409060000003 18.066548279999999 3.215904689999999 -0.00026100313525839633 -0.00010899592628423049 1.1905836026912471 
210 2 9.5086714899999993 18.066459739999999 1.6340284599999999 0.00026119336492591019 0.00010912894911638271 -1.190583602826607 
211 1 15.213752619999999 18.066648690000005 1.21248333 -9.9467532023845662e-05 9.9225311790678006e-05 1.5307751906334932e-08 
212 1 13.312281700000007 18.066359430000002 3.6374498200000001 9.91690956707079e-05 -9.950871068246589e-05 -1.5080275111989394e-08 
213 2 15.213942529999995 16.164776060000005 0.7909382399999999 -0.00010886276159486767 -0.00026059213671044464 1.1905841749714972 
214 2 13.312091689999999 19.968231960000001 4.05899491 0.00010897096834745757 0.00026074251276027305 -1.1905841750635799 
215 2 15.213885889999998 18.066548279999999 3.215904689999999 -0.00026100313522144097 -0.00010899592628273169 1.1905836026912335 
216 2 13.31214832 18.066459739999999 1.6340284599999999 0.00026119336491735003 0.00010912894911402349 -1.1905836028266212 
217 1 19.017229450000002 18.066648690000005 1.21248333 -9.946753205911774e-05 9.9225311799691629e-05 1.5307722863594497e-08 
218 1 17.115758529999997 18.066359430000002 3.6374498200000001 9.9169095681304255e-05 -9.9508710681223828e-05 -1.5080289355803855e-08 
219 2 19.017419359999998 16.164776060000005 0.7909382399999999 -0.00010886276163153758 -0.00026059213668555136 1.1905841749715036 
220 2 17.11556852 19.968231960000001 4.05899491 0.00010897096836352241 0.00026074251274504912 -1.1905841750635902 
221 2 19.017362720000005 18.066548279999999 3.215904689999999 -0.00026100313528520312 -0.00010899592628120514 1.1905836026912568 
222 2 17.11562515 18.066459739999999 1.6340284599999999 0.00026119336491970801 0.00010912894910752868 -1.1905836028266108 
223 1 22.820706280000003 18.066648690000005 1.21248333 -9.9467531999329262e-05 9.922531181117932e-05 1.5307725594162751e-08 
224 1 20.919235359999998 18.066359430000002 3.6374498200000001 9.9169095698387161e-05 -9.9508710674930251e-05 -1.5080270941714158e-08 
225 2 22.820896190000006 16.164776060000005 0.7909382399999999 -0.00010886276164628027 -0.00026059213666903999 1.1905841749714996 
226 2 20.919045350000001 19.968231960000001 4.05899491 0.00010897096831840279 0.00026074251275590155 -1.1905841750635768 
227 2 22.820839550000006 18.066548279999999 3.215904689999999 -0.00026100313528675434 -0.00010899592628692278 1.1905836026912384 
228 2 20.919101980000001 18.066459739999999 1.6340284599999999 0.00026119336491093833 0.00010912894910154736 -1.1905836028266252 
229 1 26.624183109999997 18.066648690000005 1.21248333 -9.9467532005095144e-05 9.9225311802918215e-05 1.530773700852972e-08 
230 1 24.722712190000006 18.066359430000002 3.6374498200000001 9.916909568352672e-05 -9.9508710680450697e-05 -1.5080295065646176e-08 
231 2 26.624373019999997 16.164776060000005 0.7909382399999999 -0.00010886276160936362 -0.00026059213670398887 1.1905841749714949 
232 2 24.722522179999999 19.968231960000001 4.05899491 0.00010897096832721345 0.00026074251276109574 -1.1905841750635755 
233 2 26.624316379999996 18.066548279999999 3.215904689999999 -0.00026100313518779422 -0.0001089959262836962 1.1905836026912482 
234 2 24.722578810000009 18.066459739999999 1.6340284599999999 0.00026119336484037997 0.00010912894911073056 -1.1905836028266208 
235 1 30.427659939999998 18.066648690000005 1.21248333 -9.9467532017782911e-05 9.9225311803528837e-05 1.5307735634628727e-08 
236 1 28.52618902 18.066359430000002 3.6374498200000001 9.9169095682360986e-05 -9.950871069726655e-05 -1.5080300508341082e-08 
237 2 30.427849850000012 16.164776060000005 0.7909382399999999 -0.00010886276166476722 -0.00026059213668323117 1.1905841749714949 
238 2 28.52599901 19.968231960000001 4.05899491 0.00010897096835440351 0.00026074251274597416 -1.1905841750635862 
239 2 30.427793210000004 18.066548279999999 3.215904689999999 -0.00026100313528354402 -0.00010899592626717296 1.19058360269126 
240 2 28.526055640000003 18.066459739999999 1.6340284599999999 0.00026119336487830623 0.00010912894909949691 -1.190583602826591 
241 1 3.8033200100000002 21.870125520000009 1.21248333 -9.9467532039154705e-05 9.922531177239402e-05 1.5307699302580247e-08 
242 1 1.9018490900000002 21.869836260000003 3.6374498200000001 9.916909568014054e-05 -9.9508710677154166e-05 -1.5080265036715446e-08 
243 2 3.8035099200000007 19.968252890000002 0.7909382399999999 -0.0001088627616242302 -0.00026059213664636136 1.1905841749714987 
244 2 1.9016590799999993 23.771708790000002 4.05899491 0.0001089709683456952 0.00026074251270269411 -1.190584175063552 
245 2 3.8034532799999998 21.87002511 3.215904689999999 -0.00026100313524506612 -0.00010899592630712537 1.190583602691262 
246 2 1.9017157099999997 21.869936570000004 1.6340284599999999 0.00026119336492624878 0.0001091289490658693 -1.1905836028265866 
247 1 7.6067968400000012 21.870125520000009 1.21248333 -9.9467532056168873e-05 9.9225311773348769e-05 1.5307706195070298e-08 
248 1 5.7053259199999999 21.869836260000003 3.6374498200000001 9.9169095694684462e-05 -9.9508710673601453e-05 -1.5080262621980367e-08 
249 2 7.6069867500000008 19.968252890000002 0.7909382399999999 -0.00010886276163124195 -0.00026059213664780183 1.1905841749715032 
250 2 5.7051359099999992 23.771708790000002 4.05899491 0.00010897096835887216 0.0002607425127129602 -1.190584175063554 
251 2 7.6069301100000004 21.87002511 3.215904689999999 -0.00026100313524266006 -0.00010899592630275897 1.1905836026912597 
252 2 5.7051925399999996 21.869936570000004 1.6340284599999999 0.00026119336491420286 0.0001091289490780939 -1.1905836028266077 
253 1 11.41027367 21.870125520000009 1.21248333 -9.9467532028575602e-05 9.9225311772421776e-05 1.5307717232682094e-08 
254 1 9.508802750000001 21.869836260000003 3.6374498200000001 9.9169095680322577e-05 -9.9508710677776065e-05 -1.5080263682165767e-08 
255 2 11.410463580000005 19.968252890000002 0.7909382399999999 -0.0001088627616463047 -0.00026059213665176328 1.190584174971502 
256 2 9.5086127400000002 23.771708790000002 4.05899491 0.00010897096835153254 0.000260742512712655 -1.1905841750635511 
257 2 11.410406940000001 21.87002511 3.215904689999999 -0.00026100313524594432 -0.00010899592630086996 1.1905836026912573 
258 2 9.5086693699999998 21.869936570000004 1.6340284599999999 0.00026119336491418291 0.00010912894907705306 -1.1905836028266075 
259 1 15.2137505 21.870125520000009 1.21248333 -9.9467532046886421e-05 9.9225311773309954e-05 1.5307705658607063e-08 
260 1 13.312279580000002 21.869836260000003 3.6374498200000001 9.9169095684925056e-05 -9.9508710665996425e-05 -1.5080268034317612e-08 
261 2 15.213940410000003 19.968252890000002 0.7909382399999999 -0.00010886276163618477 -0.00026059213665859116 1.1905841749714952 
262 2 13.312089570000001 23.771708790000002 4.05899491 0.00010897096833797394 0.00026074251271723803 -1.1905841750635471 
263 2 15.213883769999999 21.87002511 3.215904689999999 -0.00026100313522257283 -0.00010899592630983501 1.190583602691258 
264 2 13.312146200000004 21.869936570000004 1.6340284599999999 0.00026119336488531451 0.00010912894907624815 -1.1905836028266139 
265 1 19.017227330000004 21.870125520000009 1.21248333 -9.9467532047898497e-05 9.9225311785966497e-05 1.5307687034615824e-08 
266 1 17.115756409999999 21.869836260000003 3.6374498200000001 9.9169095685135053e-05 -9.9508710665663358e-05 -1.5080259041511113e-08 
267 2 19.017417240000011 19.968252890000002 0.7909382399999999 -0.00010886276168298951 -0.00026059213665365066 1.1905841749715058 
268 2 17.115566400000002 23.771708790000002 4.05899491 0.00010897096834271668 0.00026074251271179794 -1.1905841750635557 
269 2 19.0173606 21.87002511 3.215904689999999 -0.00026100313522426115 -0.00010899592630414512 1.1905836026912762 
270 2 17.115623030000002 21.869936570000004 1.6340284599999999 0.000261193364909134 0.00010912894906323078 -1.1905836028266179 
271 1 22.820704160000005 21.870125520000009 1.21248333 -9.9467532028342065e-05 9.9225311769427996e-05 1.5307706759675355e-08 
272 1 20.919233240000008 21.869836260000003 3.6374498200000001 9.9169095695272343e-05 -9.9508710674212075e-05 -1.5080260762356801e-08 
273 2 22.820894070000012 19.968252890000002 0.7909382399999999 -0.00010886276169018265 -0.00026059213667432217 1.1905841749714923 
274 2 20.91904323000001 23.771708790000002 4.05899491 0.00010897096828423221 0.00026074251271124282 -1.1905841750635477 
275 2 22.820837430000001 21.87002511 3.215904689999999 -0.00026100313524098865 -0.00010899592631166688 1.190583602691254 
276 2 20.919099860000003 21.869936570000004 1.6340284599999999 0.00026119336489366547 0.00010912894907486037 -1.1905836028266068 
277 1 26.624180989999999 21.870125520000009 1.21248333 -9.9467532026331629e-05 9.9225311772678515e-05 1.5307697123767561e-08 
278 1 24.722710070000005 21.869836260000003 3.6374498200000001 9.9169095673857371e-05 -9.9508710663398676e-05 -1.5080279022923471e-08 
279 2 26.624370900000006 19.968252890000002 0.7909382399999999 -0.00010886276164702793 -0.00026059213665069469 1.1905841749714876 
280 2 24.722520060000008 23.771708790000002 4.05899491 0.00010897096830147189 0.00026074251270756001 -1.1905841750635537 
281 2 26.624314259999998 21.87002511 3.215904689999999 -0.00026100313521919966 -0.00010899592630368021 1.1905836026912564 
282 2 24.722576690000004 21.869936570000004 1.6340284599999999 0.00026119336489027756 0.00010912894908108282 -1.1905836028265928 
283 1 30.42765782 21.870125520000009 1.21248333 -9.9467532040431461e-05 9.9225311775585912e-05 1.5307720091506383e-08 
284 1 28.526186900000003 21.869836260000003 3.6374498200000001 9.9169095686302278e-05 -9.9508710658946509e-05 -1.5080276083434541e-08 
285 2 30.42784773 19.968252890000002 0.7909382399999999 -0.00010886276162969805 -0.00026059213663970696 1.190584174971508 
286 2 28.525996890000009 23.771708790000002 4.05899491 0.00010897096832233888 0.00026074251271064608 -1.1905841750635562 
287 2 30.427791089999999 21.87002511 3.215904689999999 -0.00026100313523125251 -0.00010899592631366528 1.1905836026912555 
288 2 28.526053519999998 21.869936570000004 1.6340284599999999 0.0002611933649290521 0.00010912894908893245 -1.1905836028265973 
289 1 5.7050460899999997 4.7544579099999993 6.0624161099999991 -9.9467532032382344e-05 9.9225311808975869e-05 1.5307687034615824e-08 
290 1 3.8035751700000002 4.7541686500000004 8.4873826000000001 9.9169095679974006e-05 -9.9508710676987633e-05 -1.5080280468815488e-08 
291 2 5.705236000000002 2.8525852800000004 5.6408710199999987 -0.00010886276162654779 -0.00026059213665532294 1.1905841749714934 
292 2 3.8033851599999986 6.656041179999999 8.9089276899999987 0.00010897096835163489 0.00026074251277076119 -1.1905841750635755 
293 2 5.7051793599999989 4.7543575000000002 8.0658374699999982 -0.00026100313522817165 -0.0001089959262884424 1.1905836026912486 
294 2 3.8034417900000004 4.754268960000001 6.4839612400000002 0.00026119336488583667 0.00010912894907511017 -1.1905836028266343 
295 1 9.5085229200000008 4.7544579099999993 6.0624161099999991 -9.9467532045207155e-05 9.9225311823115166e-05 1.5307682377750653e-08 
296 1 7.6070520000000004 4.7541686500000004 8.4873826000000001 9.9169095676046592e-05 -9.9508710673067158e-05 -1.5080288018332055e-08 
297 2 9.5087128300000003 2.8525852800000004 5.6408710199999987 -0.00010886276162803792 -0.00026059213665684386 1.1905841749714978 
298 2 7.6068619899999987 6.656041179999999 8.9089276899999987 0.00010897096834784625 0.00026074251275995039 -1.1905841750635859 
299 2 9.5086561899999964 4.7543575000000002 8.0658374699999982 -0.00026100313520530799 -0.00010899592629672744 1.1905836026912526 
300 2 7.6069186200000001 4.754268960000001 6.4839612400000002 0.00026119336490842276 0.00010912894907470078 -1.1905836028266148 
301 1 13.31199975 4.7544579099999993 6.0624161099999991 -9.9467532044614977e-05 9.9225311811168559e-05 1.5307696332733656e-08 
302 1 11.410528830000001 4.7541686500000004 8.4873826000000001 9.9169095683368074e-05 -9.9508710672891097e-05 -1.5080289705752129e-08 
303 2 13.312189660000001 2.8525852800000004 5.6408710199999987 -0.00010886276163605413 -0.00026059213665574621 1.1905841749715009 
304 2 11.410338819999996 6.656041179999999 8.9089276899999987 0.00010897096836567748 0.00026074251275068989 -1.1905841750635831 
305 2 13.312133020000001 4.7543575000000002 8.0658374699999982 -0.0002610031352531508 -0.00010899592628603461 1.1905836026912469 
306 2 11.410395450000001 4.754268960000001 6.4839612400000002 0.00026119336490095375 0.00010912894907633142 -1.1905836028265979 
307 1 17.115476579999999 4.7544579099999993 6.0624161099999991 -9.9467532053606022e-05 9.9225311816830697e-05 1.5307677792009144e-08 
308 1 15.214005660000002 4.7541686500000004 8.4873826000000001 9.916909566610023e-05 -9.950871068165057e-05 -1.5080281384749483e-08 
309 2 17.115666490000002 2.8525852800000004 5.6408710199999987 -0.00010886276163124287 -0.00026059213665019509 1.1905841749714976 
310 2 15.213815649999999 6.656041179999999 8.9089276899999987 0.00010897096835122203 0.00026074251275316155 -1.1905841750635804 
311 2 17.115609849999998 4.7543575000000002 8.0658374699999982 -0.00026100313522030294 -0.00010899592628612828 1.1905836026912606 
312 2 15.213872280000004 4.754268960000001 6.4839612400000002 0.00026119336488429536 0.00010912894908091109 -1.1905836028266099 
313 1 20.918953410000015 4.7544579099999993 6.0624161099999991 -9.946753205307025e-05 9.9225311824269191e-05 1.5307681344722823e-08 
314 1 19.017482490000006 4.7541686500000004 8.4873826000000001 9.9169095671930744e-05 -9.9508710670881406e-05 -1.5080274640144609e-08 
315 2 20.919143320000007 2.8525852800000004 5.6408710199999987 -0.00010886276167711902 -0.00026059213666362879 1.1905841749715056 
316 2 19.017292480000002 6.656041179999999 8.9089276899999987 0.00010897096834611153 0.00026074251273304006 -1.190584175063597 
317 2 20.919086680000007 4.7543575000000002 8.0658374699999982 -0.00026100313528166878 -0.00010899592629005569 1.1905836026912446 
318 2 19.017349110000005 4.754268960000001 6.4839612400000002 0.00026119336489937407 0.00010912894906925374 -1.1905836028266203 
319 1 24.722430240000008 4.7544579099999993 6.0624161099999991 -9.9467532058121006e-05 9.9225311806065342e-05 1.5307698938152791e-08 
320 1 22.82095932 4.7541686500000004 8.4873826000000001 9.9169095682207354e-05 -9.9508710674767187e-05 -1.5080292153912822e-08 
321 2 24.722620150000008 2.8525852800000004 5.6408710199999987 -0.00010886276167381553 -0.00026059213666603344 1.1905841749715016 
322 2 22.820769310000003 6.656041179999999 8.9089276899999987 0.00010897096832949635 0.00026074251276428546 -1.1905841750635771 
323 2 24.722563510000004 4.7543575000000002 8.0658374699999982 -0.00026100313528143026 -0.00010899592628565991 1.1905836026912711 
324 2 22.820825940000006 4.754268960000001 6.4839612400000002 0.00026119336488715739 0.00010912894907758042 -1.1905836028265979 
325 1 28.525907070000002 4.7544579099999993 6.0624161099999991 -9.9467532041590256e-05 9.9225311818523787e-05 1.5307700718114603e-08 
326 1 26.624436150000001 4.7541686500000004 8.4873826000000001 9.9169095675692709e-05 -9.9508710686245662e-05 -1.5080279579336026e-08 
327 2 28.526096979999998 2.8525852800000004 5.6408710199999987 -0.00010886276162642636 -0.00026059213666028425 1.1905841749714987 
328 2 26.62424614 6.656041179999999 8.9089276899999987 0.00010897096832275174 0.00026074251275552294 -1.1905841750635735 
329 2 28.526040339999998 4.7543575000000002 8.0658374699999982 -0.00026100313521802004 -0.00010899592628349497 1.1905836026912435 
330 2 26.62430277 4.754268960000001 6.4839612400000002 0.00026119336492973905 0.00010912894908787242 -1.1905836028265993 
331 1 32.329383899999996 4.7544579099999993 6.0624161099999991 -9.9467532015173887e-05 9.9225311810613448e-05 1.5307695333532934e-08 
332 1 30.427912979999999 4.7541686500000004 8.4873826000000001 9.916909569074317e-05 -9.9508710677653767e-05 -1.5080287157909211e-08 
333 2 32.329573809999999 2.8525852800000004 5.6408710199999987 -0.00010886276161119202 -0.00026059213665580172 1.1905841749714947 
334 2 30.427722970000008 6.656041179999999 8.9089276899999987 0.00010897096831569142 0.00026074251276963362 -1.1905841750635762 
335 2 32.329517170000003 4.7543575000000002 8.0658374699999982 -0.00026100313527388508 -0.00010899592628786647 1.1905836026912509 
336 2 30.427779600000001 4.754268960000001 6.4839612400000002 0.00026119336489272352 0.00010912894906701595 -1.1905836028265822 
337 1 5.7050439700000002 8.5579347400000003 6.0624161099999991 -9.9467532035102391e-05 9.922531179943489e-05 1.5307698886246612e-08 
338 1 3.8035730500000002 8.5576454800000015 8.4873826000000001 9.916909567581067e-05 -9.9508710671054879e-05 -1.5080290682867314e-08 
339 2 5.7052338799999998 6.6560621100000006 5.6408710199999987 -0.00010886276161847785 -0.00026059213664602092 1.1905841749715012 
340 2 3.803383039999999 10.459518010000002 8.9089276899999987 0.00010897096834442538 0.00026074251272089049 -1.1905841750635608 
341 2 5.7051772399999994 8.5578343300000004 8.0658374699999982 -0.00026100313524167126 -0.00010899592627350296 1.1905836026912642 
342 2 3.8034396700000004 8.5577457900000002 6.4839612400000002 0.00026119336490781908 0.00010912894908879367 -1.1905836028265961 
343 1 9.5085207999999994 8.5579347400000003 6.0624161099999991 -9.946753205085021e-05 9.9225311802078039e-05 1.5307693720673782e-08 
344 1 7.6070498800000008 8.5576454800000015 8.4873826000000001 9.9169095677521107e-05 -9.9508710672587507e-05 -1.5080299453629209e-08 
345 2 9.5087107099999972 6.6560621100000006 5.6408710199999987 -0.00010886276162267242 -0.00026059213665086253 1.1905841749714976 
346 2 7.6068598699999992 10.459518010000002 8.9089276899999987 0.00010897096833938427 0.00026074251272927874 -1.1905841750635664 
347 2 9.5086540699999986 8.5578343300000004 8.0658374699999982 -0.00026100313523596402 -0.00010899592628507205 1.1905836026912726 
348 2 7.6069164999999996 8.5577457900000002 6.4839612400000002 0.00026119336490747214 0.00010912894909409672 -1.1905836028266006 
349 1 13.31199763 8.5579347400000003 6.0624161099999991 -9.9467532044406458e-05 9.9225311811397543e-05 1.5307720837437477e-08 
350 1 11.410526710000003 8.5576454800000015 8.4873826000000001 9.916909567584302e-05 -9.9508710673834773e-05 -1.5080284293130281e-08 
351 2 13.312187540000002 6.6560621100000006 5.6408710199999987 -0.0001088627616382382 -0.00026059213663046088 1.1905841749715194 
352 2 11.410336699999997 10.459518010000002 8.9089276899999987 0.00010897096836895957 0.00026074251272092291 -1.1905841750635748 
353 2 13.312130900000001 8.5578343300000004 8.0658374699999982 -0.00026100313525790437 -0.00010899592629302901 1.190583602691248 
354 2 11.410393329999996 8.5577457900000002 6.4839612400000002 0.00026119336494743426 0.00010912894908580995 -1.1905836028266061 
355 1 17.115474460000001 8.5579347400000003 6.0624161099999991 -9.9467532036142899e-05 9.9225311807612376e-05 1.5307716063478471e-08 
356 1 15.21400354 8.5576454800000015 8.4873826000000001 9.9169095684226681e-05 -9.9508710684023671e-05 -1.508027724569927e-08 
357 2 17.115664370000005 6.6560621100000006 5.6408710199999987 -0.00010886276164093567 -0.00026059213664327008 1.1905841749715085 
358 2 15.213813529999996 10.459518010000002 8.9089276899999987 0.0001089709683635455 0.00026074251271604367 -1.1905841750635728 
359 2 17.115607730000001 8.5578343300000004 8.0658374699999982 -0.00026100313526453102 -0.00010899592627618138 1.1905836026912637 
360 2 15.213870160000003 8.5577457900000002 6.4839612400000002 0.00026119336489282256 0.00010912894908768345 -1.1905836028266086 
361 1 20.918951290000003 8.5579347400000003 6.0624161099999991 -9.9467532052434257e-05 9.9225311797939558e-05 1.5307693307375914e-08 
362 1 19.017480369999998 8.5576454800000015 8.4873826000000001 9.9169095679332159e-05 -9.950871068440531e-05 -1.5080293538222156e-08 
363 2 20.919141200000006 6.6560621100000006 5.6408710199999987 -0.00010886276167519003 -0.00026059213663989778 1.1905841749715018 
364 2 19.017290360000001 10.459518010000002 8.9089276899999987 0.00010897096835520235 0.00026074251274267688 -1.1905841750635859 
365 2 20.919084559999998 8.5578343300000004 8.0658374699999982 -0.00026100313523151099 -0.00010899592627376664 1.1905836026912608 
366 2 19.01734699 8.5577457900000002 6.4839612400000002 0.00026119336491360997 0.00010912894909932691 -1.1905836028266186 
367 1 24.722428120000004 8.5579347400000003 6.0624161099999991 -9.9467532041821788e-05 9.9225311808532105e-05 1.5307713662085856e-08 
368 1 22.820957199999999 8.5576454800000015 8.4873826000000001 9.9169095700736695e-05 -9.9508710676196599e-05 -1.5080272985218413e-08 
369 2 24.722618030000007 6.6560621100000006 5.6408710199999987 -0.00010886276167423534 -0.00026059213662453263 1.1905841749715105 
370 2 22.820767190000002 10.459518010000002 8.9089276899999987 0.00010897096833687586 0.00026074251273654463 -1.1905841750635624 
371 2 24.722561389999999 8.5578343300000004 8.0658374699999982 -0.00026100313525378917 -0.00010899592627447441 1.1905836026912648 
372 2 22.820823820000001 8.5577457900000002 6.4839612400000002 0.00026119336489689347 0.00010912894910777848 -1.190583602826593 
373 1 28.525904949999997 8.5579347400000003 6.0624161099999991 -9.9467532014951843e-05 9.9225311808511288e-05 1.5307696249466929e-08 
374 1 26.62443403 8.5576454800000015 8.4873826000000001 9.9169095676171493e-05 -9.950871068881411e-05 -1.5080288236039852e-08 
375 2 28.526094860000004 6.6560621100000006 5.6408710199999987 -0.00010886276165188169 -0.00026059213663723324 1.1905841749715091 
376 2 26.624244019999999 10.459518010000002 8.9089276899999987 0.00010897096831867514 0.00026074251273698439 -1.1905841750635735 
377 2 28.52603821999999 8.5578343300000004 8.0658374699999982 -0.00026100313515602103 -0.00010899592628915364 1.1905836026912566 
378 2 26.624300650000002 8.5577457900000002 6.4839612400000002 0.00026119336488490685 0.00010912894909987465 -1.1905836028266035 
379 1 32.329381779999999 8.5579347400000003 6.0624161099999991 -9.9467532031105588e-05 9.9225311815123295e-05 1.5307699885447335e-08 
380 1 30.427910860000001 8.5576454800000015 8.4873826000000001 9.9169095695628151e-05 -9.9508710687236379e-05 -1.5080290627356163e-08 
381 2 32.329571689999995 6.6560621100000006 5.6408710199999987 -0.00010886276161285735 -0.00026059213664381131 1.190584174971502 
382 2 30.427720850000007 10.459518010000002 8.9089276899999987 0.00010897096832154091 0.00026074251272795211 -1.1905841750635835 
383 2 32.329515049999998 8.5578343300000004 8.0658374699999982 -0.00026100313522325891 -0.00010899592628600685 1.1905836026912653 
384 2 30.427777480000003 8.5577457900000002 6.4839612400000002 0.00026119336485392296 0.00010912894910393585 -1.1905836028265766 
385 1 5.7050418500000006 12.36141157 6.0624161099999991 -9.9467532049313245e-05 9.9225311809689166e-05 1.5307699552380427e-08 
386 1 3.8035709299999985 12.361122310000001 8.4873826000000001 9.9169095693074638e-05 -9.9508710678283417e-05 -1.5080308668480313e-08 
387 2 5.7052317600000002 10.459538940000002 5.6408710199999987 -0.00010886276162066361 -0.00026059213666418146 1.190584174971512 
388 2 3.8033809199999986 14.262994840000003 8.9089276899999987 0.00010897096835540271 0.00026074251270487422 -1.1905841750635506 
389 2 5.7051751199999998 12.361311160000001 8.0658374699999982 -0.00026100313524185341 -0.0001089959263073639 1.1905836026912735 
390 2 3.8034375500000004 12.361222620000001 6.4839612400000002 0.0002611933649163678 0.00010912894907811872 -1.1905836028265846 
391 1 9.5085186800000017 12.36141157 6.0624161099999991 -9.9467532040167783e-05 9.9225311813082908e-05 1.53076945182129e-08 
392 1 7.6070477600000004 12.361122310000001 8.4873826000000001 9.9169095673416752e-05 -9.9508710675553884e-05 -1.5080291612679098e-08 
393 2 9.5087085900000012 10.459538940000002 5.6408710199999987 -0.00010886276163785472 -0.00026059213667614726 1.1905841749715029 
394 2 7.6068577499999996 14.262994840000003 8.9089276899999987 0.00010897096835022282 0.00026074251271482156 -1.1905841750635588 
395 2 9.5086519500000009 12.361311160000001 8.0658374699999982 -0.00026100313526788987 -0.00010899592630628284 1.1905836026912862 
396 2 7.606914380000001 12.361222620000001 6.4839612400000002 0.0002611933648939968 0.00010912894907559969 -1.1905836028266095 
397 1 13.311995510000001 12.36141157 6.0624161099999991 -9.9467532065917422e-05 9.9225311818935242e-05 1.5307704298583857e-08 
398 1 11.410524590000001 12.361122310000001 8.4873826000000001 9.9169095668743813e-05 -9.9508710674845249e-05 -1.5080293025167523e-08 
399 2 13.312185420000002 10.459538940000002 5.6408710199999987 -0.00010886276164043851 -0.00026059213667549934 1.1905841749715176 
400 2 11.410334579999999 14.262994840000003 8.9089276899999987 0.00010897096835592833 0.00026074251270645146 -1.1905841750635546 
401 2 13.312128780000004 12.361311160000001 8.0658374699999982 -0.00026100313528293253 -0.00010899592631620405 1.1905836026912744 
402 2 11.410391209999995 12.361222620000001 6.4839612400000002 0.00026119336496181549 0.00010912894907451299 -1.1905836028266108 
403 1 17.115472340000004 12.36141157 6.0624161099999991 -9.9467532048569672e-05 9.9225311813788317e-05 1.5307697123767561e-08 
404 1 15.214001420000006 12.361122310000001 8.4873826000000001 9.9169095660781026e-05 -9.9508710675870037e-05 -1.5080269543527036e-08 
405 2 17.11566225 10.459538940000002 5.6408710199999987 -0.00010886276163425619 -0.00026059213665552704 1.1905841749715016 
406 2 15.213811409999995 14.262994840000003 8.9089276899999987 0.00010897096837066134 0.00026074251271602806 -1.1905841750635517 
407 2 17.115605609999996 12.361311160000001 8.0658374699999982 -0.00026100313520943143 -0.0001089959263064046 1.1905836026912413 
408 2 15.213868039999996 12.361222620000001 6.4839612400000002 0.00026119336495557824 0.00010912894906968493 -1.1905836028266377 
409 1 20.918949170000005 12.36141157 6.0624161099999991 -9.9467532040415822e-05 9.9225311824649421e-05 1.5307695402921873e-08 
410 1 19.01747825 12.361122310000001 8.4873826000000001 9.9169095665329471e-05 -9.9508710679274432e-05 -1.5080283197535516e-08 
411 2 20.919139080000001 10.459538940000002 5.6408710199999987 -0.00010886276164734711 -0.00026059213665489099 1.1905841749715269 
412 2 19.017288240000003 14.262994840000003 8.9089276899999987 0.00010897096834488335 0.0002607425127065994 -1.190584175063566 
413 2 20.91908244 12.361311160000001 8.0658374699999982 -0.00026100313524445896 -0.00010899592630342694 1.1905836026912733 
414 2 19.017344870000002 12.361222620000001 6.4839612400000002 0.00026119336489393403 0.00010912894907788703 -1.1905836028266039 
415 1 24.722426000000006 12.36141157 6.0624161099999991 -9.9467532032628404e-05 9.922531181513968e-05 1.5307708312005532e-08 
416 1 22.820955080000001 12.361122310000001 8.4873826000000001 9.9169095679150013e-05 -9.9508710672787434e-05 -1.508027619792629e-08 
417 2 24.722615910000009 10.459538940000002 5.6408710199999987 -0.00010886276167538893 -0.00026059213665150649 1.1905841749715227 
418 2 22.820765070000004 14.262994840000003 8.9089276899999987 0.00010897096831133553 0.00026074251270546446 -1.1905841750635582 
419 2 24.722559270000001 12.361311160000001 8.0658374699999982 -0.00026100313524128962 -0.00010899592631169117 1.190583602691268 
420 2 22.820821700000003 12.361222620000001 6.4839612400000002 0.00026119336489037665 0.0001091289490754736 -1.1905836028266088 
421 1 28.52590283 12.36141157 6.0624161099999991 -9.9467532034085843e-05 9.9225311815220562e-05 1.5307700898525844e-08 
422 1 26.624431910000006 12.361122310000001 8.4873826000000001 9.9169095681840569e-05 -9.9508710665941347e-05 -1.5080302652459299e-08 
423 2 28.526092739999999 10.459538940000002 5.6408710199999987 -0.0001088627616381288 -0.00026059213668176701 1.1905841749715091 
424 2 26.624241900000008 14.262994840000003 8.9089276899999987 0.00010897096829419299 0.00026074251270580295 -1.1905841750635588 
425 2 28.526036099999999 12.361311160000001 8.0658374699999982 -0.00026100313521423835 -0.00010899592632606008 1.1905836026912571 
426 2 26.624298530000011 12.361222620000001 6.4839612400000002 0.00026119336481474076 0.00010912894907057007 -1.1905836028265935 
427 1 32.329379660000015 12.36141157 6.0624161099999991 -9.9467532045982576e-05 9.9225311813779318e-05 1.5307671019648694e-08 
428 1 30.427908739999992 12.361122310000001 8.4873826000000001 9.916909567386778e-05 -9.9508710654720993e-05 -1.5080290127755802e-08 
429 2 32.329569570000004 10.459538940000002 5.6408710199999987 -0.00010886276163808717 -0.00026059213666808107 1.1905841749715111 
430 2 30.427718730000009 14.262994840000003 8.9089276899999987 0.00010897096832700182 0.00026074251270904146 -1.19058417506356 
431 2 32.32951293 12.361311160000001 8.0658374699999982 -0.00026100313522281482 -0.00010899592630894269 1.190583602691293 
432 2 30.427775360000005 12.361222620000001 6.4839612400000002 0.00026119336486412834 0.00010912894907005248 -1.1905836028266159 
433 1 5.7050397300000002 16.164888399999999 6.0624161099999991 -9.9467532045260931e-05 9.9225311814284014e-05 1.5307695999666748e-08 
434 1 3.8035688100000002 16.16459914 8.4873826000000001 9.9169095671369778e-05 -9.9508710673973497e-05 -1.5080299009539999e-08 
435 2 5.7052296400000007 14.263015770000001 5.6408710199999987 -0.00010886276162540287 -0.00026059213667346451 1.1905841749715127 
436 2 3.8033787999999991 18.066471669999999 8.9089276899999987 0.00010897096835848358 0.00026074251276557176 -1.1905841750635613 
437 2 5.7051730000000003 16.164787990000001 8.0658374699999982 -0.00026100313524813484 -0.00010899592630640915 1.1905836026912548 
438 2 3.8034354299999995 16.164699450000001 6.4839612400000002 0.0002611933649183662 0.00010912894910148165 -1.1905836028266004 
439 1 9.5085165600000003 16.164888399999999 6.0624161099999991 -9.9467532042409046e-05 9.9225311806050529e-05 1.5307698264781927e-08 
440 1 7.6070456400000026 16.16459914 8.4873826000000001 9.9169095684182446e-05 -9.9508710671870199e-05 -1.5080309903603428e-08 
441 2 9.5087064699999999 14.263015770000001 5.6408710199999987 -0.00010886276164225744 -0.00026059213666824381 1.1905841749715014 
442 2 7.6068556299999983 18.066471669999999 8.9089276899999987 0.00010897096835601333 0.00026074251275106687 -1.1905841750635759 
443 2 9.5086498300000031 16.164787990000001 8.0658374699999982 -0.00026100313527372548 -0.0001089959262980287 1.1905836026912622 
444 2 7.6069122599999996 16.164699450000001 6.4839612400000002 0.00026119336491014361 0.00010912894909349488 -1.1905836028266052 
445 1 13.31199339 16.164888399999999 6.0624161099999991 -9.9467532051024333e-05 9.9225311800640848e-05 1.5307712597500966e-08 
446 1 11.41052247 16.16459914 8.4873826000000001 9.9169095676868418e-05 -9.9508710669310208e-05 -1.5080305683188924e-08 
447 2 13.312183300000006 14.263015770000001 5.6408710199999987 -0.00010886276164949711 -0.0002605921366660264 1.1905841749715049 
448 2 11.410332459999999 18.066471669999999 8.9089276899999987 0.00010897096835349972 0.00026074251277715576 -1.1905841750635755 
449 2 13.312126660000001 16.164787990000001 8.0658374699999982 -0.00026100313526046873 -0.00010899592629497017 1.1905836026912398 
450 2 11.410389089999995 16.164699450000001 6.4839612400000002 0.0002611933649587137 0.00010912894908815486 -1.1905836028266155 
451 1 17.115470219999999 16.164888399999999 6.0624161099999991 -9.946753203383199e-05 9.922531180291507e-05 1.5307698525424129e-08 
452 1 15.213999299999998 16.16459914 8.4873826000000001 9.9169095672533777e-05 -9.9508710673553748e-05 -1.5080288623750548e-08 
453 2 17.115660129999998 14.263015770000001 5.6408710199999987 -0.00010886276162728484 -0.00026059213666959131 1.1905841749715114 
454 2 15.213809289999999 18.066471669999999 8.9089276899999987 0.00010897096835686508 0.00026074251277212164 -1.1905841750635782 
455 2 17.115603489999998 16.164787990000001 8.0658374699999982 -0.00026100313521953446 -0.00010899592630564912 1.1905836026912571 
456 2 15.213865920000002 16.164699450000001 6.4839612400000002 0.00026119336490920447 0.00010912894908838644 -1.1905836028266132 
457 1 20.91894705 16.164888399999999 6.0624161099999991 -9.9467532036657597e-05 9.9225311812032777e-05 1.5307695944155597e-08 
458 1 19.017476129999999 16.16459914 8.4873826000000001 9.9169095696530207e-05 -9.9508710658116877e-05 -1.5080289596930418e-08 
459 2 20.919136959999999 14.263015770000001 5.6408710199999987 -0.0001088627616384515 -0.00026059213666424299 1.1905841749715242 
460 2 19.017286120000001 18.066471669999999 8.9089276899999987 0.00010897096834518345 0.00026074251276356902 -1.1905841750635731 
461 2 20.919080319999999 16.164787990000001 8.0658374699999982 -0.00026100313521640415 -0.00010899592631167295 1.1905836026912489 
462 2 19.017342750000005 16.164699450000001 6.4839612400000002 0.00026119336486584284 0.00010912894909087046 -1.1905836028266148 
463 1 24.722423880000008 16.164888399999999 6.0624161099999991 -9.9467532038521639e-05 9.9225311802982738e-05 1.5307712071158081e-08 
464 1 22.82095296 16.16459914 8.4873826000000001 9.9169095689417841e-05 -9.9508710658159812e-05 -1.5080281795878947e-08 
465 2 24.722613790000008 14.263015770000001 5.6408710199999987 -0.000108862761668653 -0.00026059213668839549 1.1905841749715236 
466 2 22.820762950000002 18.066471669999999 8.9089276899999987 0.00010897096832165019 0.00026074251277210039 -1.1905841750635726 
467 2 24.72255715 16.164787990000001 8.0658374699999982 -0.00026100313521836178 -0.00010899592631328364 1.1905836026912642 
468 2 22.820819580000013 16.164699450000001 6.4839612400000002 0.00026119336480400954 0.00010912894907540919 -1.1905836028266201 
469 1 28.525900710000002 16.164888399999999 6.0624161099999991 -9.9467532038564899e-05 9.9225311793805834e-05 1.5307683412513207e-08 
470 1 26.624429790000001 16.16459914 8.4873826000000001 9.9169095674039517e-05 -9.95087106655493e-05 -1.5080297694619604e-08 
471 2 28.526090619999998 14.263015770000001 5.6408710199999987 -0.0001088627616303503 -0.00026059213667615566 1.1905841749714938 
472 2 26.62423978 18.066471669999999 8.9089276899999987 0.00010897096833726791 0.00026074251275744523 -1.1905841750635735 
473 2 28.526033979999998 16.164787990000001 8.0658374699999982 -0.00026100313520014545 -0.00010899592629088392 1.1905836026912759 
474 2 26.624296410000014 16.164699450000001 6.4839612400000002 0.00026119336480456834 0.00010912894908585808 -1.1905836028265895 
475 1 32.32937754000001 16.164888399999999 6.0624161099999991 -9.9467532059416275e-05 9.9225311792405953e-05 1.5307698442157402e-08 
476 1 30.427906619999998 16.16459914 8.4873826000000001 9.9169095703510735e-05 -9.9508710675503225e-05 -1.5080300314052053e-08 
477 2 32.329567449999999 14.263015770000001 5.6408710199999987 -0.00010886276161223285 -0.00026059213665716966 1.1905841749715043 
478 2 30.427716610000001 18.066471669999999 8.9089276899999987 0.00010897096837882148 0.00026074251279009902 -1.1905841750635791 
479 2 32.329510810000002 16.164787990000001 8.0658374699999982 -0.00026100313526034036 -0.00010899592628342433 1.1905836026912562 
480 2 30.42777324 16.164699450000001 6.4839612400000002 0.00026119336491097975 0.00010912894909830082 -1.1905836028266035 
481 1 5.7050376099999998 19.968365230000003 6.0624161099999991 -9.9467532029828831e-05 9.9225311822192727e-05 1.5307710266032615e-08 
482 1 3.8035666900000002 19.968075970000001 8.4873826000000001 9.9169095701234777e-05 -9.9508710692554608e-05 -1.5080294679670203e-08 
483 2 5.7052275200000011 18.0664926 5.6408710199999987 -0.00010886276163468017 -0.00026059213664076167 1.1905841749715189 
484 2 3.8033766799999986 21.8699485 8.9089276899999987 0.00010897096835235653 0.00026074251276327759 -1.1905841750635981 
485 2 5.7051708800000007 19.968264819999998 8.0658374699999982 -0.0002610031352577296 -0.00010899592625814741 1.1905836026912577 
486 2 3.80343331 19.968176279999998 6.4839612400000002 0.00026119336491681189 0.00010912894910328728 -1.1905836028266352 
487 1 9.5085144400000008 19.968365230000003 6.0624161099999991 -9.946753204668167e-05 9.9225311803331377e-05 1.5307702992770761e-08 
488 1 7.6070435200000004 19.968075970000001 8.4873826000000001 9.9169095675599034e-05 -9.9508710690525415e-05 -1.5080294457625598e-08 
489 2 9.5087043500000021 18.0664926 5.6408710199999987 -0.00010886276164645374 -0.00026059213663198722 1.1905841749715083 
490 2 7.6068535099999988 21.8699485 8.9089276899999987 0.00010897096833664341 0.00026074251275946727 -1.1905841750635906 
491 2 9.5086477099999964 19.968264819999998 8.0658374699999982 -0.00026100313521516122 -0.00010899592625585573 1.1905836026912555 
492 2 7.6069101400000001 19.968176279999998 6.4839612400000002 0.00026119336491522288 0.00010912894909865731 -1.1905836028266239 
493 1 13.31199127 19.968365230000003 6.0624161099999991 -9.9467532044876256e-05 9.9225311807053795e-05 1.5307706630052209e-08 
494 1 11.410520350000002 19.968075970000001 8.4873826000000001 9.916909565935137e-05 -9.9508710691986946e-05 -1.5080285479577801e-08 
495 2 13.312181180000001 18.0664926 5.6408710199999987 -0.00010886276163872891 -0.00026059213664714719 1.1905841749715247 
496 2 11.41033034 21.8699485 8.9089276899999987 0.00010897096834875525 0.00026074251275972547 -1.1905841750636059 
497 2 13.312124540000001 19.968264819999998 8.0658374699999982 -0.00026100313524303703 -0.00010899592625603083 1.1905836026912651 
498 2 11.410386970000001 19.968176279999998 6.4839612400000002 0.0002611933649024764 0.00010912894911352389 -1.1905836028266015 
499 1 17.115468100000001 19.968365230000003 6.0624161099999991 -9.9467532042871458e-05 9.9225311805936633e-05 1.5307724678115253e-08 
500 1 15.213997180000007 19.968075970000001 8.4873826000000001 9.9169095686958871e-05 -9.9508710686636165e-05 -1.5080284694601875e-08 
501 2 17.115658009999997 18.0664926 5.6408710199999987 -0.00010886276160817414 -0.00026059213666059736 1.1905841749715169 
502 2 15.213807169999999 21.8699485 8.9089276899999987 0.00010897096835408443 0.00026074251275441662 -1.1905841750635948 
503 2 17.11560137 19.968264819999998 8.0658374699999982 -0.00026100313524455123 -0.00010899592626748 1.1905836026912491 
504 2 15.213863800000002 19.968176279999998 6.4839612400000002 0.00026119336489911256 0.00010912894910740378 -1.1905836028266064 
505 1 20.918944930000009 19.968365230000003 6.0624161099999991 -9.9467532064812851e-05 9.9225311795944626e-05 1.5307689230775745e-08 
506 1 19.017474009999997 19.968075970000001 8.4873826000000001 9.9169095660649187e-05 -9.9508710700097619e-05 -1.5080288406910114e-08 
507 2 20.919134840000005 18.0664926 5.6408710199999987 -0.00010886276165933057 -0.00026059213665278157 1.1905841749715229 
508 2 19.017284 21.8699485 8.9089276899999987 0.00010897096835755864 0.00026074251278214444 -1.1905841750636148 
509 2 20.919078199999998 19.968264819999998 8.0658374699999982 -0.00026100313523228684 -0.00010899592626453791 1.1905836026912748 
510 2 19.01734063 19.968176279999998 6.4839612400000002 0.00026119336491745645 0.00010912894910548865 -1.1905836028266363 
511 1 24.72242176000001 19.968365230000003 6.0624161099999991 -9.9467532053536646e-05 9.9225311808951935e-05 1.5307728643491525e-08 
512 1 22.820950840000005 19.968075970000001 8.4873826000000001 9.9169095674232939e-05 -9.9508710703865438e-05 -1.5080287711286e-08 
513 2 24.722611670000006 18.0664926 5.6408710199999987 -0.00010886276166581325 -0.00026059213664262351 1.1905841749715214 
514 2 22.820760830000001 21.8699485 8.9089276899999987 0.00010897096832648335 0.00026074251274754712 -1.1905841750636015 
515 2 24.722555030000006 19.968264819999998 8.0658374699999982 -0.00026100313529393995 -0.00010899592625790433 1.1905836026912588 
516 2 22.820817460000001 19.968176279999998 6.4839612400000002 0.00026119336491404836 0.00010912894910228288 -1.1905836028265977 
517 1 28.525898589999997 19.968365230000003 6.0624161099999991 -9.9467532038505918e-05 9.9225311804616509e-05 1.5307716136336857e-08 
518 1 26.624427670000006 19.968075970000001 8.4873826000000001 9.9169095664233126e-05 -9.9508710687633631e-05 -1.5080306340481409e-08 
519 2 28.526088499999997 18.0664926 5.6408710199999987 -0.00010886276161102201 -0.00026059213662568399 1.1905841749715036 
520 2 26.624237659999999 21.8699485 8.9089276899999987 0.00010897096834732063 0.00026074251275818921 -1.1905841750635884 
521 2 28.526031859999996 19.968264819999998 8.0658374699999982 -0.00026100313520751456 -0.00010899592625693375 1.1905836026912457 
522 2 26.624294290000002 19.968176279999998 6.4839612400000002 0.00026119336490779826 0.00010912894910244486 -1.1905836028265941 
523 1 32.329375419999998 19.968365230000003 6.0624161099999991 -9.9467532025832028e-05 9.9225311808774641e-05 1.5307703327138711e-08 
524 1 30.4279045 19.968075970000001 8.4873826000000001 9.9169095667095419e-05 -9.9508710707338355e-05 -1.5080299592407087e-08 
525 2 32.329565329999994 18.0664926 5.6408710199999987 -0.00010886276161461289 -0.00026059213663262408 1.1905841749715265 
526 2 30.42771449 21.8699485 8.9089276899999987 0.00010897096836085668 0.00026074251273394689 -1.1905841750636275 
527 2 32.329508690000011 19.968264819999998 8.0658374699999982 -0.00026100313536103759 -0.00010899592626602977 1.1905836026912486 
528 2 30.427771119999996 19.968176279999998 6.4839612400000002 0.00026119336495015848 0.0001091289491169066 -1.1905836028265746 
529 1 5.7050354900000002 23.771842060000001 6.0624161099999991 -9.9467532045427465e-05 9.9225311782635828e-05 1.5307705769629365e-08 
530 1 3.8035645699999985 23.771552800000009 8.4873826000000001 9.9169095687301478e-05 -9.9508710676654566e-05 -1.5080281134949303e-08 
531 2 5.7052254000000016 21.869969430000001 5.6408710199999987 -0.00010886276163860759 -0.00026059213664321804 1.1905841749715005 
532 2 3.8033745599999991 25.673425330000001 8.9089276899999987 0.00010897096834369679 0.00026074251271246407 -1.190584175063552 
533 2 5.7051687599999994 23.771741649999999 8.0658374699999982 -0.00026100313525258961 -0.00010899592631552837 1.1905836026912735 
534 2 3.8034311900000004 23.771653110000006 6.4839612400000002 0.00026119336490282308 0.00010912894905485554 -1.1905836028266101 
535 1 9.5085123200000012 23.771842060000001 6.0624161099999991 -9.9467532053559848e-05 9.9225311791566184e-05 1.5307702007447826e-08 
536 1 7.6070414000000008 23.771552800000009 8.4873826000000001 9.9169095675477603e-05 -9.9508710685550228e-05 -1.5080274903822577e-08 
537 2 9.5087022300000008 21.869969430000001 5.6408710199999987 -0.00010886276163619112 -0.00026059213664039282 1.1905841749715111 
538 2 7.6068513899999992 25.673425330000001 8.9089276899999987 0.00010897096835579129 0.00026074251272788229 -1.1905841750635608 
539 2 9.5086455899999969 23.771741649999999 8.0658374699999982 -0.00026100313521273955 -0.00010899592630490937 1.1905836026912622 
540 2 7.6069080199999997 23.771653110000006 6.4839612400000002 0.00026119336492060052 0.00010912894906288384 -1.1905836028266246 
541 1 13.31198915 23.771842060000001 6.0624161099999991 -9.946753203538099e-05 9.9225311788853077e-05 1.5307700579336725e-08 
542 1 11.410518230000001 23.771552800000009 8.4873826000000001 9.9169095675385771e-05 -9.950871069043258e-05 -1.5080278596342432e-08 
543 2 13.312179060000005 21.869969430000001 5.6408710199999987 -0.00010886276164899424 -0.00026059213664750974 1.1905841749715125 
544 2 11.41032822 25.673425330000001 8.9089276899999987 0.0001089709683447012 0.0002607425127261409 -1.1905841750635644 
545 2 13.312122420000001 23.771741649999999 8.0658374699999982 -0.00026100313525067708 -0.00010899592630114752 1.190583602691264 
546 2 11.410384850000002 23.771653110000006 6.4839612400000002 0.00026119336489700628 0.00010912894906204076 -1.1905836028266061 
547 1 17.11546598 23.771842060000001 6.0624161099999991 -9.9467532033481725e-05 9.9225311785411385e-05 1.5307693113086884e-08 
548 1 15.213995060000002 23.771552800000009 8.4873826000000001 9.9169095672753694e-05 -9.9508710677542744e-05 -1.5080277915302531e-08 
549 2 17.115655889999999 21.869969430000001 5.6408710199999987 -0.00010886276161753251 -0.00026059213664332906 1.1905841749715003 
550 2 15.213805049999999 25.673425330000001 8.9089276899999987 0.00010897096835197663 0.00026074251272900639 -1.19058417506356 
551 2 17.115599249999999 23.771741649999999 8.0658374699999982 -0.00026100313521876597 -0.00010899592630675414 1.1905836026912715 
552 2 15.213861680000004 23.771653110000006 6.4839612400000002 0.00026119336488737705 0.0001091289490670784 -1.190583602826617 
553 1 20.918942810000004 23.771842060000001 6.0624161099999991 -9.9467532051796475e-05 9.9225311784079118e-05 1.530768276025718e-08 
554 1 19.017471889999999 23.771552800000009 8.4873826000000001 9.9169095678487836e-05 -9.9508710684759194e-05 -1.5080284909707586e-08 
555 2 20.919132720000007 21.869969430000001 5.6408710199999987 -0.00010886276168180429 -0.00026059213664614278 1.1905841749715107 
556 2 19.017281880000002 25.673425330000001 8.9089276899999987 0.00010897096834965557 0.00026074251271623883 -1.1905841750635804 
557 2 20.919076080000007 23.771741649999999 8.0658374699999982 -0.00026100313530605119 -0.00010899592630500554 1.1905836026912737 
558 2 19.017338510000002 23.771653110000006 6.4839612400000002 0.00026119336492306226 0.00010912894905648965 -1.1905836028266052 
559 1 24.722419640000005 23.771842060000001 6.0624161099999991 -9.9467532040165994e-05 9.9225311795740254e-05 1.5307705858488203e-08 
560 1 22.820948720000001 23.771552800000009 8.4873826000000001 9.9169095698092001e-05 -9.9508710691531554e-05 -1.5080283688462259e-08 
561 2 24.722609550000008 21.869969430000001 5.6408710199999987 -0.00010886276167729018 -0.00026059213664709297 1.1905841749715096 
562 2 22.820758710000003 25.673425330000001 8.9089276899999987 0.00010897096833139934 0.00026074251271646087 -1.1905841750635493 
563 2 24.722552910000005 23.771741649999999 8.0658374699999982 -0.00026100313529228269 -0.00010899592630583821 1.1905836026912662 
564 2 22.820815340000003 23.771653110000006 6.4839612400000002 0.00026119336490228824 0.00010912894905949766 -1.190583602826617 
565 1 28.525896469999999 23.771842060000001 6.0624161099999991 -9.9467532039224094e-05 9.9225311793280091e-05 1.5307685855003861e-08 
566 1 26.624425550000002 23.771552800000009 8.4873826000000001 9.9169095665877643e-05 -9.9508710679502548e-05 -1.5080272533322947e-08 
567 2 28.526086379999999 21.869969430000001 5.6408710199999987 -0.00010886276161825581 -0.00026059213664280864 1.1905841749715043 
568 2 26.624235540000001 25.673425330000001 8.9089276899999987 0.00010897096833208109 0.00026074251272810781 -1.1905841750635457 
569 2 28.526029739999998 23.771741649999999 8.0658374699999982 -0.00026100313521561919 -0.00010899592630455451 1.1905836026912584 
570 2 26.624292170000004 23.771653110000006 6.4839612400000002 0.0002611933649046827 0.00010912894905200279 -1.1905836028266039 
571 1 32.3293733 23.771842060000001 6.0624161099999991 -9.9467532026942251e-05 9.9225311794237658e-05 1.5307699552380427e-08 
572 1 30.427902380000006 23.771552800000009 8.4873826000000001 9.9169095672702046e-05 -9.9508710670118128e-05 -1.5080292903313364e-08 
573 2 32.329563210000003 21.869969430000001 5.6408710199999987 -0.00010886276164159825 -0.00026059213666648415 1.1905841749715047 
574 2 30.427712370000009 25.673425330000001 8.9089276899999987 0.00010897096832587078 0.00026074251271401838 -1.1905841750635526 
575 2 32.329506569999999 23.771741649999999 8.0658374699999982 -0.00026100313523425012 -0.00010899592631612165 1.1905836026912584 
576 2 30.427769000000005 23.771653110000006 6.4839612400000002 0.00026119336486686573 0.00010912894904280268 -1.1905836028265999 
577 1 7.6067615699999998 6.6561744500000009 10.912348889999997 -9.9467532063413078e-05 9.92253117899633e-05 1.5307708545186927e-08 
578 1 5.705290650000002 6.6558851900000011 13.33731538 9.9169095664819462e-05 -9.9508710711460058e-05 -1.5080291460023432e-08 
579 2 7.6069514800000011 4.754301820000002 10.490803799999998 -0.00010886276162688779 -0.00026059213665831707 1.1905841749714858 
580 2 5.7051006399999995 8.5577577200000015 13.758860469999998 0.00010897096837323567 0.00026074251272742086 -1.1905841750635815 
581 2 7.6068948400000007 6.65607404 12.91577025 -0.00026100313525088958 -0.00010899592624725313 1.1905836026912442 
582 2 5.7051572700000008 6.6559854999999999 11.333894019999999 0.00026119336488505951 0.00010912894912366855 -1.1905836028265795 
583 1 11.410238400000001 6.6561744500000009 10.912348889999997 -9.9467532046235846e-05 9.9225311808170524e-05 1.5307691804238022e-08 
584 1 9.5087674799999995 6.6558851900000011 13.33731538 9.916909567706661e-05 -9.9508710687978841e-05 -1.5080273668699462e-08 
585 2 11.41042831 4.754301820000002 10.490803799999998 -0.0001088627616304752 -0.00026059213665701776 1.1905841749714769 
586 2 9.5085774699999988 8.5577577200000015 13.758860469999998 0.00010897096834399864 0.0002607425127367051 -1.1905841750635766 
587 2 11.41037167 6.65607404 12.91577025 -0.00026100313524299312 -0.00010899592625876128 1.1905836026912502 
588 2 9.5086340999999983 6.6559854999999999 11.333894019999999 0.00026119336491815803 0.00010912894911676435 -1.1905836028266092 
589 1 15.213715229999998 6.6561744500000009 10.912348889999997 -9.9467532031855015e-05 9.9225311803063931e-05 1.5307717093904216e-08 
590 1 13.312244310000001 6.6558851900000011 13.33731538 9.9169095688039522e-05 -9.950871068721296e-05 -1.5080277993973257e-08 
591 2 15.213905140000001 4.754301820000002 10.490803799999998 -0.00010886276164070022 -0.00026059213664431091 1.1905841749714878 
592 2 13.3120543 8.5577577200000015 13.758860469999998 0.00010897096834611153 0.00026074251273275941 -1.1905841750635808 
593 2 15.213848500000005 6.65607404 12.91577025 -0.00026100313528673222 -0.00010899592625361262 1.1905836026912209 
594 2 13.312110929999998 6.6559854999999999 11.333894019999999 0.00026119336493593028 0.0001091289491143288 -1.1905836028266044 
595 1 19.017192059999999 6.6561744500000009 10.912348889999997 -9.94675320313681e-05 9.9225311799955307e-05 1.5307699441358125e-08 
596 1 17.115721139999998 6.6558851900000011 13.33731538 9.9169095681480804e-05 -9.9508710689200086e-05 -1.5080266368983075e-08 
597 2 19.017381970000002 4.754301820000002 10.490803799999998 -0.00010886276164894856 -0.00026059213666240755 1.1905841749714761 
598 2 17.115531130000008 8.5577577200000015 13.758860469999998 0.00010897096830698437 0.00026074251273452975 -1.1905841750635722 
599 2 19.017325329999998 6.65607404 12.91577025 -0.00026100313521901296 -0.00010899592627835325 1.1905836026912533 
600 2 17.115587760000004 6.6559854999999999 11.333894019999999 0.00026119336486832181 0.00010912894910700133 -1.1905836028266319 
601 1 22.82066889 6.6561744500000009 10.912348889999997 -9.9467532024960791e-05 9.9225311814055139e-05 1.5307717038393065e-08 
602 1 20.919197969999999 6.6558851900000011 13.33731538 9.9169095705937884e-05 -9.950871067154754e-05 -1.5080266091427319e-08 
603 2 22.820858800000007 4.754301820000002 10.490803799999998 -0.00010886276167063452 -0.00026059213665363679 1.1905841749714969 
604 2 20.919007960000002 8.5577577200000015 13.758860469999998 0.00010897096834626355 0.00026074251271129487 -1.1905841750635606 
605 2 22.82080216 6.65607404 12.91577025 -0.0002610031352341154 -0.00010899592626357341 1.1905836026912371 
606 2 20.919064589999998 6.6559854999999999 11.333894019999999 0.00026119336492843215 0.0001091289490986469 -1.1905836028266206 
607 1 26.624145720000001 6.6561744500000009 10.912348889999997 -9.9467532049721149e-05 9.922531179585129e-05 1.5307712591625946e-08 
608 1 24.722674799999993 6.6558851900000011 13.33731538 9.9169095703956938e-05 -9.9508710683204882e-05 -1.508027672181278e-08 
609 2 26.624335630000012 4.754301820000002 10.490803799999998 -0.0001088627616921134 -0.00026059213664573761 1.1905841749714856 
610 2 24.722484790000003 8.5577577200000015 13.758860469999998 0.00010897096830109532 0.00026074251272848945 -1.1905841750635766 
611 2 26.624278990000001 6.65607404 12.91577025 -0.00026100313525255546 -0.00010899592627428706 1.1905836026912517 
612 2 24.722541419999999 6.6559854999999999 11.333894019999999 0.00026119336490558736 0.00010912894911369042 -1.1905836028266141 
613 1 30.427622549999999 6.6561744500000009 10.912348889999997 -9.9467532057348484e-05 9.9225311797193627e-05 1.5307682843523907e-08 
614 1 28.526151630000001 6.6558851900000011 13.33731538 9.9169095700030879e-05 -9.9508710658541071e-05 -1.508026694534495e-08 
615 2 30.427812459999998 4.754301820000002 10.490803799999998 -0.00010886276162191261 -0.00026059213664679851 1.1905841749714721 
616 2 28.525961620000007 8.5577577200000015 13.758860469999998 0.00010897096829371941 0.00026074251273257082 -1.1905841750635631 
617 2 30.427755819999998 6.65607404 12.91577025 -0.00026100313520255325 -0.00010899592628973997 1.1905836026912255 
618 2 28.52601825 6.6559854999999999 11.333894019999999 0.00026119336488353989 0.00010912894910634398 -1.190583602826611 
619 1 34.231099380000018 6.6561744500000009 10.912348889999997 -9.9467532046926266e-05 9.9225311796014015e-05 1.5307692335930767e-08 
620 1 32.329628460000002 6.6558851900000011 13.33731538 9.9169095650886163e-05 -9.9508710672574496e-05 -1.5080259208044566e-08 
621 2 34.231289289999999 4.754301820000002 10.490803799999998 -0.00010886276162318936 -0.00026059213664680891 1.1905841749714827 
622 2 32.329438449999984 8.5577577200000015 13.758860469999998 0.00010897096842299447 0.00026074251275995733 -1.1905841750635773 
623 2 34.231232649999995 6.65607404 12.91577025 -0.00026100313517429807 -0.00010899592622591256 1.19058360269125 
624 2 32.329495080000001 6.6559854999999999 11.333894019999999 0.00026119336490662559 0.00010912894912391141 -1.1905836028266499 
625 1 7.6067594500000002 10.459651279999999 10.912348889999997 -9.9467532026775718e-05 9.9225311829135091e-05 1.5307700690359027e-08 
626 1 5.7052885299999989 10.45936202 13.33731538 9.9169095677309471e-05 -9.9508710672852052e-05 -1.5080308224391104e-08 
627 2 7.6069493600000007 8.5577786499999995 10.490803799999998 -0.00010886276163651204 -0.00026059213661541779 1.1905841749714992 
628 2 5.70509852 12.361234549999999 13.758860469999998 0.00010897096834736053 0.0002607425127515205 -1.190584175063589 
629 2 7.6068927200000003 10.459550870000001 12.91577025 -0.00026100313525906881 -0.00010899592628775025 1.1905836026912415 
630 2 5.7051551499999977 10.459462330000003 11.333894019999999 0.00026119336494012657 0.00010912894907711551 -1.1905836028266412 
631 1 11.410236279999999 10.459651279999999 10.912348889999997 -9.94675320353227e-05 9.9225311815268524e-05 1.5307709179662038e-08 
632 1 9.5087653600000017 10.45936202 13.33731538 9.9169095688207004e-05 -9.9508710673885947e-05 -1.5080308155002164e-08 
633 2 11.410426189999999 8.5577786499999995 10.490803799999998 -0.00010886276162817669 -0.00026059213663726208 1.1905841749714867 
634 2 9.508575350000001 12.361234549999999 13.758860469999998 0.00010897096833249048 0.00026074251273223558 -1.1905841750635755 
635 2 11.410369550000002 10.459550870000001 12.91577025 -0.0002610031352602224 -0.00010899592629164394 1.1905836026912413 
636 2 9.5086319800000005 10.459462330000003 11.333894019999999 0.00026119336490331574 0.00010912894908120079 -1.1905836028266052 
637 1 15.21371311 10.459651279999999 10.912348889999997 -9.9467532044608499e-05 9.9225311818752771e-05 1.5307727656635461e-08 
638 1 13.312242189999999 10.45936202 13.33731538 9.9169095666757528e-05 -9.9508710678407504e-05 -1.5080290038951174e-08 
639 2 15.21390302 8.5577786499999995 10.490803799999998 -0.00010886276163710846 -0.00026059213662912861 1.1905841749715005 
640 2 13.312052179999998 12.361234549999999 13.758860469999998 0.00010897096835225245 0.00026074251274394204 -1.1905841750635717 
641 2 15.213846380000003 10.459550870000001 12.91577025 -0.00026100313527212585 -0.00010899592629370902 1.1905836026912267 
642 2 13.312108809999998 10.459462330000003 11.333894019999999 0.00026119336493327463 0.00010912894907597059 -1.1905836028266201 
643 1 19.017189940000002 10.459651279999999 10.912348889999997 -9.9467532035813627e-05 9.9225311809926497e-05 1.5307729578709073e-08 
644 1 17.11571902 10.45936202 13.33731538 9.9169095695666532e-05 -9.9508710694334868e-05 -1.5080273741557848e-08 
645 2 19.017379850000001 8.5577786499999995 10.490803799999998 -0.00010886276163812029 -0.00026059213662590897 1.1905841749714854 
646 2 17.115529009999999 12.361234549999999 13.758860469999998 0.0001089709683373759 0.00026074251273891166 -1.1905841750635686 
647 2 19.017323210000001 10.459550870000001 12.91577025 -0.00026100313524392136 -0.00010899592627021393 1.190583602691242 
648 2 17.115585640000006 10.459462330000003 11.333894019999999 0.00026119336485919912 0.00010912894907787185 -1.190583602826633 
649 1 22.820666769999999 10.459651279999999 10.912348889999997 -9.9467532048717801e-05 9.9225311806443173e-05 1.53077052179873e-08 
650 1 20.919195849999998 10.45936202 13.33731538 9.9169095671742744e-05 -9.9508710678271328e-05 -1.5080284954810397e-08 
651 2 22.820856679999999 8.5577786499999995 10.490803799999998 -0.0001088627616327291 -0.00026059213660434288 1.1905841749714976 
652 2 20.919005840000001 12.361234549999999 13.758860469999998 0.00010897096834038261 0.00026074251278194408 -1.1905841750635742 
653 2 22.820800039999991 10.459550870000001 12.91577025 -0.00026100313514409816 -0.00010899592628980936 1.1905836026912164 
654 2 20.91906247 10.459462330000003 11.333894019999999 0.0002611933649047368 0.00010912894909700932 -1.190583602826657 
655 1 26.624143600000007 10.459651279999999 10.912348889999997 -9.946753204593002e-05 9.9225311808157405e-05 1.5307727954084633e-08 
656 1 24.722672680000006 10.45936202 13.33731538 9.9169095668134085e-05 -9.9508710663762101e-05 -1.5080271600909079e-08 
657 2 26.624333510000007 8.5577786499999995 10.490803799999998 -0.00010886276166042867 -0.00026059213664260964 1.1905841749714938 
658 2 24.722482670000002 12.361234549999999 13.758860469999998 0.00010897096831183578 0.00026074251275810811 -1.1905841750635702 
659 2 26.624276869999992 10.459550870000001 12.91577025 -0.00026100313516198289 -0.00010899592627787447 1.1905836026912471 
660 2 24.722539300000015 10.459462330000003 11.333894019999999 0.00026119336474859911 0.00010912894907798287 -1.1905836028266439 
661 1 30.427620429999997 10.459651279999999 10.912348889999997 -9.9467532026612654e-05 9.9225311805926537e-05 1.5307702883049501e-08 
662 1 28.526149510000007 10.45936202 13.33731538 9.9169095642235097e-05 -9.950871069612597e-05 -1.5080276181446417e-08 
663 2 30.427810339999997 8.5577786499999995 10.490803799999998 -0.00010886276161825928 -0.00026059213664440892 1.1905841749714683 
664 2 28.525959499999999 12.361234549999999 13.758860469999998 0.00010897096832737652 0.00026074251275217146 -1.190584175063562 
665 2 30.42775369999999 10.459550870000001 12.91577025 -0.00026100313512977119 -0.00010899592625236102 1.1905836026912742 
666 2 28.526016130000009 10.459462330000003 11.333894019999999 0.00026119336481213173 0.00010912894909167505 -1.1905836028266128 
667 1 34.231097259999999 10.459651279999999 10.912348889999997 -9.9467532075292464e-05 9.9225311808741681e-05 1.5307723977286969e-08 
668 1 32.329626340000019 10.45936202 13.33731538 9.9169095657547501e-05 -9.9508710685651276e-05 -1.5080298981784424e-08 
669 2 34.231287170000002 8.5577786499999995 10.490803799999998 -0.00010886276163140501 -0.00026059213663688803 1.1905841749714878 
670 2 32.32943633 12.361234549999999 13.758860469999998 0.00010897096835938563 0.0002607425127338016 -1.1905841750635726 
671 2 34.231230530000012 10.459550870000001 12.91577025 -0.00026100313534471731 -0.00010899592629540558 1.1905836026912113 
672 2 32.329492959999996 10.459462330000003 11.333894019999999 0.00026119336495022093 0.00010912894908586546 -1.1905836028265648 
673 1 7.6067573299999971 14.26312811 10.912348889999997 -9.9467532029051675e-05 9.9225311808746343e-05 1.5307709044787288e-08 
674 1 5.7052864100000003 14.26283885 13.33731538 9.9169095703510735e-05 -9.9508710656256603e-05 -1.5080292459224154e-08 
675 2 7.6069472400000002 12.361255480000001 10.490803799999998 -0.00010886276164476932 -0.00026059213665842392 1.1905841749715034 
676 2 5.7050964000000004 16.16471138 13.758860469999998 0.0001089709683109244 0.00026074251273926772 -1.1905841750635753 
677 2 7.6068905999999998 14.263027699999999 12.91577025 -0.0002610031352555213 -0.00010899592630600973 1.19058360269124 
678 2 5.70515303 14.262939160000006 11.333894019999999 0.00026119336489205391 0.00010912894906254947 -1.1905836028265979 
679 1 11.410234159999998 14.26312811 10.912348889999997 -9.9467532043864479e-05 9.922531180588821e-05 1.5307704512388526e-08 
680 1 9.5087632400000004 14.26283885 13.33731538 9.9169095678003361e-05 -9.9508710655150066e-05 -1.5080287588120633e-08 
681 2 11.410424070000001 12.361255480000001 10.490803799999998 -0.00010886276164340583 -0.00026059213664914461 1.1905841749715083 
682 2 9.5085732299999997 16.16471138 13.758860469999998 0.00010897096834706216 0.00026074251272730506 -1.1905841750635777 
683 2 11.410367430000001 14.263027699999999 12.91577025 -0.00026100313525530272 -0.00010899592630484443 1.1905836026912473 
684 2 9.5086298599999992 14.262939160000006 11.333894019999999 0.00026119336491386286 0.000109128949054998 -1.1905836028266064 
685 1 15.213710989999999 14.26312811 10.912348889999997 -9.9467532032853118e-05 9.9225311811498469e-05 1.5307730794950129e-08 
686 1 13.312240070000001 14.26283885 13.33731538 9.9169095688423099e-05 -9.950871067171799e-05 -1.5080279937253186e-08 
687 2 15.213900900000002 12.361255480000001 10.490803799999998 -0.00010886276163753709 -0.00026059213665590098 1.1905841749715116 
688 2 13.312050059999999 16.16471138 13.758860469999998 0.00010897096835366625 0.0002607425127263939 -1.1905841750635857 
689 2 15.213844260000005 14.263027699999999 12.91577025 -0.00026100313529202953 -0.00010899592630369929 1.1905836026912218 
690 2 13.312106689999997 14.262939160000006 11.333894019999999 0.00026119336494782701 0.00010912894906275721 -1.1905836028266037 
691 1 19.017187819999997 14.26312811 10.912348889999997 -9.9467532030374537e-05 9.9225311818243074e-05 1.5307739316206611e-08 
692 1 17.115716899999999 14.26283885 13.33731538 9.9169095692892492e-05 -9.9508710667639642e-05 -1.5080291321245554e-08 
693 2 19.017377729999993 12.361255480000001 10.490803799999998 -0.00010886276160102654 -0.00026059213663880691 1.1905841749714956 
694 2 17.115526889999991 16.16471138 13.758860469999998 0.00010897096837163452 0.00026074251273639892 -1.1905841750635813 
695 2 19.017321089999996 14.263027699999999 12.91577025 -0.00026100313520260979 -0.00010899592628882794 1.190583602691222 
696 2 17.115583520000001 14.262939160000006 11.333894019999999 0.00026119336489595184 0.00010912894907960939 -1.190583602826637 
697 1 22.820664650000001 14.26312811 10.912348889999997 -9.9467532037472836e-05 9.9225311812594814e-05 1.5307693500514672e-08 
698 1 20.919193729999993 14.26283885 13.33731538 9.9169095665981727e-05 -9.950871067609425e-05 -1.5080273405021494e-08 
699 2 22.820854560000001 12.361255480000001 10.490803799999998 -0.00010886276163482696 -0.00026059213666872075 1.1905841749715107 
700 2 20.919003720000003 16.16471138 13.758860469999998 0.00010897096833546466 0.00026074251274253333 -1.1905841750635942 
701 2 22.82079792 14.263027699999999 12.91577025 -0.00026100313524026814 -0.0001089959262958178 1.1905836026912555 
702 2 20.919060350000002 14.262939160000006 11.333894019999999 0.00026119336488793134 0.00010912894906371499 -1.1905836028266177 
703 1 26.624141480000002 14.26312811 10.912348889999997 -9.9467532034902599e-05 9.9225311820803539e-05 1.5307726956835475e-08 
704 1 24.722670560000001 14.26283885 13.33731538 9.9169095701718765e-05 -9.9508710685984776e-05 -1.5080288198743297e-08 
705 2 26.624331390000002 12.361255480000001 10.490803799999998 -0.00010886276165154515 -0.00026059213664330759 1.1905841749715056 
706 2 24.722480550000004 16.16471138 13.758860469999998 0.00010897096831342392 0.00026074251271816437 -1.1905841750635746 
707 2 26.624274750000005 14.263027699999999 12.91577025 -0.00026100313527280635 -0.00010899592629423974 1.1905836026912313 
708 2 24.722537180000003 14.262939160000006 11.333894019999999 0.00026119336488229089 0.00010912894906589684 -1.1905836028266055 
709 1 30.427618309999993 14.26312811 10.912348889999997 -9.9467532015753285e-05 9.9225311828353584e-05 1.5307706741074512e-08 
710 1 28.526147390000002 14.26283885 13.33731538 9.9169095683649885e-05 -9.9508710682456349e-05 -1.5080294574719433e-08 
711 2 30.427808219999996 12.361255480000001 10.490803799999998 -0.00010886276160302147 -0.00026059213663605146 1.1905841749715078 
712 2 28.525957380000001 16.16471138 13.758860469999998 0.0001089709683337256 0.00026074251271543739 -1.1905841750635635 
713 2 30.427751579999999 14.263027699999999 12.91577025 -0.00026100313521137258 -0.00010899592628865492 1.1905836026912289 
714 2 28.526014010000004 14.262939160000006 11.333894019999999 0.00026119336487374217 0.00010912894906562037 -1.1905836028265919 
715 1 34.231095140000001 14.26312811 10.912348889999997 -9.9467532019503757e-05 9.9225311816295318e-05 1.530768978241781e-08 
716 1 32.329624219999999 14.26283885 13.33731538 9.9169095663487195e-05 -9.9508710689463981e-05 -1.5080285992175035e-08 
717 2 34.231285049999997 12.361255480000001 10.490803799999998 -0.00010886276161393982 -0.00026059213665049217 1.1905841749714972 
718 2 32.329434210000016 16.16471138 13.758860469999998 0.00010897096829980135 0.00026074251273047614 -1.1905841750635979 
719 2 34.23122841 14.263027699999999 12.91577025 -0.000261003135223703 -0.00010899592630976885 1.1905836026912509 
720 2 32.329490840000005 14.262939160000006 11.333894019999999 0.00026119336485816783 0.00010912894905427441 -1.1905836028266097 
721 1 7.6067552099999984 18.066604940000001 10.912348889999997 -9.9467532047758933e-05 9.9225311802370394e-05 1.5307715123258347e-08 
722 1 5.7052842899999998 18.066315680000002 13.33731538 9.9169095681139741e-05 -9.9508710697642714e-05 -1.5080315662885369e-08 
723 2 7.6069451200000007 16.164732310000005 10.490803799999998 -0.00010886276164080028 -0.00026059213668943031 1.1905841749715129 
724 2 5.7050942800000017 19.968188210000001 13.758860469999998 0.00010897096834600745 0.00026074251275112629 -1.1905841750635733 
725 2 7.6068884800000012 18.06650453 12.91577025 -0.00026100313526236131 -0.00010899592627687082 1.1905836026912469 
726 2 5.7051509100000004 18.066415989999999 11.333894019999999 0.00026119336488339417 0.00010912894911252089 -1.1905836028265684 
727 1 11.41023204 18.066604940000001 10.912348889999997 -9.9467532040077578e-05 9.9225311814670194e-05 1.530771154625854e-08 
728 1 9.5087611199999991 18.066315680000002 13.33731538 9.91690956935673e-05 -9.9508710696264747e-05 -1.5080295859282167e-08 
729 2 11.41042195 16.164732310000005 10.490803799999998 -0.0001088627616390031 -0.00026059213669158657 1.1905841749715165 
730 2 9.5085711100000019 19.968188210000001 13.758860469999998 0.00010897096831945924 0.00026074251275221743 -1.1905841750635771 
731 2 11.410365309999998 18.06650453 12.91577025 -0.00026100313522864349 -0.00010899592627923069 1.1905836026912535 
732 2 9.5086277399999997 18.066415989999999 11.333894019999999 0.000261193364890909 0.00010912894910937573 -1.1905836028266135 
733 1 15.213708869999998 18.066604940000001 10.912348889999997 -9.9467532060011393e-05 9.9225311805399208e-05 1.530772448716184e-08 
734 1 13.31223795 18.066315680000002 13.33731538 9.916909568662537e-05 -9.9508710680106679e-05 -1.5080307734504516e-08 
735 2 15.213898780000001 16.164732310000005 10.490803799999998 -0.00010886276163051112 -0.00026059213669850611 1.1905841749715231 
736 2 13.312047939999999 19.968188210000001 13.758860469999998 0.00010897096835226633 0.00026074251275030712 -1.1905841750635828 
737 2 15.213842140000001 18.06650453 12.91577025 -0.0002610031352664217 -0.00010899592627465796 1.1905836026912413 
738 2 13.312104569999997 18.066415989999999 11.333894019999999 0.00026119336493176867 0.00010912894910653295 -1.1905836028265955 
739 1 19.017185699999999 18.066604940000001 10.912348889999997 -9.9467532040591394e-05 9.9225311802297522e-05 1.5307713516594395e-08 
740 1 17.115714779999998 18.066315680000002 13.33731538 9.916909567769111e-05 -9.9508710677116002e-05 -1.5080288406910114e-08 
741 2 19.017375610000009 16.164732310000005 10.490803799999998 -0.00010886276166936288 -0.00026059213667811704 1.1905841749715189 
742 2 17.11552477 19.968188210000001 13.758860469999998 0.00010897096834769381 0.00026074251277303324 -1.1905841750635777 
743 2 19.017318969999991 18.06650453 12.91577025 -0.0002610031351683631 -0.00010899592628825581 1.1905836026912413 
744 2 17.115581399999996 18.066415989999999 11.333894019999999 0.00026119336493414004 0.00010912894910196976 -1.1905836028266379 
745 1 22.820662530000007 18.066604940000001 10.912348889999997 -9.946753204676167e-05 9.9225311805517183e-05 1.5307709943919537e-08 
746 1 20.919191610000006 18.066315680000002 13.33731538 9.916909567236204e-05 -9.9508710688145808e-05 -1.5080288698343658e-08 
747 2 22.820852440000007 16.164732310000005 10.490803799999998 -0.00010886276167561611 -0.00026059213670585711 1.1905841749715198 
748 2 20.919001600000001 19.968188210000001 13.758860469999998 0.00010897096834371479 0.00026074251272929349 -1.1905841750635771 
749 2 22.820795799999999 18.06650453 12.91577025 -0.00026100313522912086 -0.00010899592628215902 1.1905836026912455 
750 2 20.919058230000005 18.066415989999999 11.333894019999999 0.0002611933648635394 0.00010912894910870071 -1.1905836028266068 
751 1 26.624139360000008 18.066604940000001 10.912348889999997 -9.9467532053024578e-05 9.922531180892418e-05 1.5307737493284982e-08 
752 1 24.72266844 18.066315680000002 13.33731538 9.9169095702209692e-05 -9.9508710683163248e-05 -1.5080298926273272e-08 
753 2 26.624329270000008 16.164732310000005 10.490803799999998 -0.00010886276167338185 -0.00026059213670434958 1.1905841749715229 
754 2 24.722478430000002 19.968188210000001 13.758860469999998 0.00010897096831444198 0.00026074251274422816 -1.1905841750635642 
755 2 26.62427263 18.06650453 12.91577025 -0.00026100313525928093 -0.00010899592629690503 1.1905836026912631 
756 2 24.722535060000006 18.066415989999999 11.333894019999999 0.00026119336485526477 0.00010912894910134071 -1.1905836028265997 
757 1 30.427616189999998 18.066604940000001 10.912348889999997 -9.9467532069387465e-05 9.9225311800234503e-05 1.5307698983391127e-08 
758 1 28.526145270000001 18.066315680000002 13.33731538 9.9169095674478402e-05 -9.9508710664034019e-05 -1.5080305596285037e-08 
759 2 30.427806099999998 16.164732310000005 10.490803799999998 -0.00010886276161259367 -0.00026059213669039021 1.1905841749715202 
760 2 28.52595526 19.968188210000001 13.758860469999998 0.0001089709683257771 0.00026074251274220851 -1.1905841750635606 
761 2 30.42774945999999 18.06650453 12.91577025 -0.0002610031351486311 -0.00010899592631515479 1.1905836026912393 
762 2 28.526011889999999 18.066415989999999 11.333894019999999 0.00026119336488786976 0.00010912894909876898 -1.1905836028266095 
763 1 34.231093020000017 18.066604940000001 10.912348889999997 -9.946753204714831e-05 9.9225311793388457e-05 1.5307719092305661e-08 
764 1 32.329622100000002 18.066315680000002 13.33731538 9.9169095675588625e-05 -9.9508710674039091e-05 -1.5080292709024334e-08 
765 2 34.231282929999999 16.164732310000005 10.490803799999998 -0.00010886276162119096 -0.0002605921366741082 1.1905841749715182 
766 2 32.329432089999983 19.968188210000001 13.758860469999998 0.000108970968428726 0.0002607425127245668 -1.1905841750635964 
767 2 34.231226289999995 18.06650453 12.91577025 -0.00026100313519739071 -0.00010899592625557178 1.1905836026912477 
768 2 32.329488720000001 18.066415989999999 11.333894019999999 0.00026119336490292543 0.0001091289491110389 -1.1905836028266341 
769 1 7.6067530899999998 21.870081770000002 10.912348889999997 -9.9467532018726601e-05 9.9225311819326097e-05 1.5307718786994329e-08 
770 1 5.7052821700000003 21.869792510000003 13.33731538 9.9169095684303876e-05 -9.9508710673917172e-05 -1.5080276249967994e-08 
771 2 7.6069430000000011 19.968209140000006 10.490803799999998 -0.00010886276164442932 -0.00026059213669169402 1.1905841749715209 
772 2 5.7050921599999995 23.771665040000002 13.758860469999998 0.00010897096835253695 0.00026074251269410723 -1.1905841750635946 
773 2 7.6068863600000007 21.869981360000001 12.91577025 -0.00026100313526502585 -0.00010899592629528849 1.1905836026912642 
774 2 5.70514879 21.86989282 11.333894019999999 0.00026119336489738298 0.00010912894908676057 -1.1905836028266301 
775 1 11.410229919999999 21.870081770000002 10.912348889999997 -9.9467532044417856e-05 9.9225311801069867e-05 1.5307716690581008e-08 
776 1 9.5087590000000013 21.869792510000003 13.33731538 9.9169095689015385e-05 -9.9508710683305496e-05 -1.5080296747460586e-08 
777 2 11.410419829999999 19.968209140000006 10.490803799999998 -0.00010886276162831894 -0.00026059213669018416 1.1905841749714987 
778 2 9.5085689900000006 23.771665040000002 13.758860469999998 0.00010897096833254599 0.00026074251272802974 -1.1905841750635788 
779 2 11.410363189999998 21.869981360000001 12.91577025 -0.0002610031352294484 -0.00010899592627912043 1.1905836026912537 
780 2 9.5086256200000001 21.86989282 11.333894019999999 0.00026119336491128853 0.00010912894910007805 -1.1905836028266168 
781 1 15.21370675 21.870081770000002 10.912348889999997 -9.9467532038876092e-05 9.9225311807227268e-05 1.5307722756041642e-08 
782 1 13.312235830000002 21.869792510000003 13.33731538 9.9169095654404941e-05 -9.9508710672592697e-05 -1.5080287376121839e-08 
783 2 15.21389666 19.968209140000006 10.490803799999998 -0.00010886276162653363 -0.00026059213668410373 1.1905841749715158 
784 2 13.312045820000002 23.771665040000002 13.758860469999998 0.00010897096834050143 0.00026074251273382741 -1.1905841750635815 
785 2 15.213840019999999 21.869981360000001 12.91577025 -0.00026100313521317111 -0.0001089959262893514 1.1905836026912544 
786 2 13.312102450000001 21.86989282 11.333894019999999 0.00026119336490144874 0.00010912894909834159 -1.1905836028266246 
787 1 19.017183580000001 21.870081770000002 10.912348889999997 -9.9467532031313348e-05 9.9225311804354566e-05 1.5307745675208206e-08 
788 1 17.115712660000007 21.869792510000003 13.33731538 9.9169095686490495e-05 -9.9508710677001511e-05 -1.5080288157109933e-08 
789 2 19.017373490000001 19.968209140000006 10.490803799999998 -0.00010886276163698619 -0.0002605921367244482 1.1905841749715154 
790 2 17.115522649999999 23.771665040000002 13.758860469999998 0.00010897096835143323 0.00026074251270472026 -1.1905841750635791 
791 2 19.017316850000007 21.869981360000001 12.91577025 -0.00026100313529424515 -0.00010899592628152432 1.1905836026912524 
792 2 17.115579280000006 21.86989282 11.333894019999999 0.00026119336487585181 0.00010912894909735626 -1.1905836028265997 
793 1 22.820660409999999 21.870081770000002 10.912348889999997 -9.9467532036524566e-05 9.9225311793647852e-05 1.5307721649288064e-08 
794 1 20.919189489999997 21.869792510000003 13.33731538 9.9169095682389609e-05 -9.9508710689130697e-05 -1.508030915073344e-08 
795 2 22.820850319999998 19.968209140000006 10.490803799999998 -0.00010886276164610619 -0.00026059213669544102 1.190584174971504 
796 2 20.91899948 23.771665040000002 13.758860469999998 0.00010897096835913258 0.00026074251273765225 -1.1905841750635786 
797 2 22.820793680000005 21.869981360000001 12.91577025 -0.0002610031352926666 -0.00010899592628156596 1.190583602691256 
798 2 20.91905611 21.86989282 11.333894019999999 0.00026119336493260806 0.00010912894910927728 -1.1905836028266215 
799 1 26.62413724 21.870081770000002 10.912348889999997 -9.946753203191752e-05 9.9225311809076822e-05 1.5307750615007793e-08 
800 1 24.722666319999998 21.869792510000003 13.33731538 9.9169095709261343e-05 -9.9508710682826712e-05 -1.5080293161787162e-08 
801 2 26.624327149999999 19.968209140000006 10.490803799999998 -0.00010886276164019833 -0.00026059213668437484 1.1905841749715076 
802 2 24.722476310000001 23.771665040000002 13.758860469999998 0.0001089709683121721 0.0002607425127489349 -1.1905841750635686 
803 2 26.624270510000006 21.869981360000001 12.91577025 -0.00026100313530447991 -0.00010899592628357824 1.1905836026912402 
804 2 24.722532940000001 21.86989282 11.333894019999999 0.0002611933648976124 0.00010912894910125592 -1.1905836028266181 
805 1 30.427614069999997 21.870081770000002 10.912348889999997 -9.9467532001139974e-05 9.9225311795090275e-05 1.5307727557756223e-08 
806 1 28.526143149999999 21.869792510000003 13.33731538 9.916909568035738e-05 -9.9508710693775419e-05 -1.5080280950201252e-08 
807 2 30.427803979999997 19.968209140000006 10.490803799999998 -0.00010886276160509273 -0.00026059213671453322 1.1905841749714812 
808 2 28.525953139999991 23.771665040000002 13.758860469999998 0.00010897096834635439 0.00026074251275465298 -1.1905841750635551 
809 2 30.427747339999996 21.869981360000001 12.91577025 -0.00026100313520647372 -0.00010899592626119857 1.1905836026912746 
810 2 28.526009770000009 21.86989282 11.333894019999999 0.00026119336485087852 0.00010912894909668211 -1.1905836028266368 
811 1 34.231090899999984 21.870081770000002 10.912348889999997 -9.9467532030383943e-05 9.9225311828959883e-05 1.5307739298364709e-08 
812 1 32.329619980000004 21.869792510000003 13.33731538 9.9169095680473607e-05 -9.9508710669155356e-05 -1.5080312582016475e-08 
813 2 34.231280810000001 19.968209140000006 10.490803799999998 -0.00010886276164037006 -0.00026059213670170684 1.1905841749715251 
814 2 32.32942997 23.771665040000002 13.758860469999998 0.00010897096835872644 0.00026074251275981898 -1.1905841750635728 
815 2 34.231224169999997 21.869981360000001 12.91577025 -0.0002610031352431319 -0.00010899592630904745 1.1905836026912384 
816 2 32.329486599999996 21.86989282 11.333894019999999 0.00026119336494050995 0.00010912894909267945 -1.1905836028265928 
817 1 7.6067509699999984 25.67355860000001 10.912348889999997 -9.9467532041097595e-05 9.9225311778805558e-05 1.5307694611887968e-08 
818 1 5.7052800500000007 25.673269340000004 13.33731538 9.9169095687079434e-05 -9.9508710688200885e-05 -1.5080278692458648e-08 
819 2 7.6069408800000007 23.771685970000004 10.490803799999998 -0.00010886276163854514 -0.00026059213668246095 1.1905841749715076 
820 2 5.7050900400000017 27.575141870000003 13.758860469999998 0.00010897096834074083 0.00026074251273278115 -1.1905841750635306 
821 2 7.6068842399999994 25.673458190000002 12.91577025 -0.00026100313522970341 -0.00010899592629789664 1.1905836026912526 
822 2 5.7051466699999995 25.673369650000005 11.333894019999999 0.00026119336491503553 0.00010912894905885581 -1.1905836028266281 
823 1 11.410227800000001 25.67355860000001 10.912348889999997 -9.9467532052416666e-05 9.9225311785182131e-05 1.530769985812544e-08 
824 1 9.50875688 25.673269340000004 13.33731538 9.9169095670925689e-05 -9.9508710698414937e-05 -1.5080276236090207e-08 
825 2 11.410417710000001 23.771685970000004 10.490803799999998 -0.00010886276163654153 -0.00026059213666894876 1.1905841749715114 
826 2 9.5085668699999992 27.575141870000003 13.758860469999998 0.0001089709683573456 0.00026074251272147769 -1.1905841750635495 
827 2 11.41036107 25.673458190000002 12.91577025 -0.00026100313524447805 -0.00010899592629808757 1.1905836026912509 
828 2 9.5086234999999988 25.673369650000005 11.333894019999999 0.00026119336492477774 0.00010912894905996257 -1.1905836028266021 
829 1 15.213704630000002 25.67355860000001 10.912348889999997 -9.946753203632968e-05 9.9225311788964099e-05 1.5307699496869276e-08 
830 1 13.312233710000001 25.673269340000004 13.33731538 9.9169095676140132e-05 -9.9508710708529242e-05 -1.5080269493899376e-08 
831 2 15.213894540000002 23.771685970000004 10.490803799999998 -0.00010886276163627328 -0.00026059213668329535 1.1905841749715123 
832 2 13.3120437 27.575141870000003 13.758860469999998 0.0001089709683478584 0.00026074251271697674 -1.190584175063552 
833 2 15.213837900000005 25.673458190000002 12.91577025 -0.00026100313528078608 -0.00010899592629695642 1.1905836026912608 
834 2 13.312100330000002 25.673369650000005 11.333894019999999 0.00026119336490568364 0.0001091289490647504 -1.1905836028265977 
835 1 19.01718146 25.67355860000001 10.912348889999997 -9.9467532041312402e-05 9.9225311799400195e-05 1.5307703243871984e-08 
836 1 17.115710540000006 25.673269340000004 13.33731538 9.9169095679994227e-05 -9.9508710687090662e-05 -1.508028868446587e-08 
837 2 19.017371369999999 23.771685970000004 10.490803799999998 -0.00010886276162783384 -0.00026059213666820022 1.1905841749715 
838 2 17.115520529999998 27.575141870000003 13.758860469999998 0.00010897096834934991 0.00026074251271546167 -1.1905841750635431 
839 2 19.017314729999999 25.673458190000002 12.91577025 -0.00026100313522220398 -0.00010899592630819743 1.1905836026912398 
840 2 17.115577160000001 25.673369650000005 11.333894019999999 0.00026119336491991704 0.00010912894905923398 -1.1905836028266137 
841 1 22.820658289999994 25.67355860000001 10.912348889999997 -9.9467532027719895e-05 9.9225311798956106e-05 1.5307697803779163e-08 
842 1 20.91918737 25.673269340000004 13.33731538 9.9169095669605591e-05 -9.9508710695528357e-05 -1.5080297566250067e-08 
843 2 22.820848200000007 23.771685970000004 10.490803799999998 -0.00010886276167944185 -0.0002605921366643899 1.1905841749715238 
844 2 20.918997360000002 27.575141870000003 13.758860469999998 0.00010897096835114249 0.00026074251270180593 -1.1905841750635484 
845 2 22.82079156 25.673458190000002 12.91577025 -0.00026100313524352585 -0.00010899592629898258 1.1905836026912624 
846 2 20.919053990000002 25.673369650000005 11.333894019999999 0.00026119336490074314 0.00010912894904300738 -1.1905836028265884 
847 1 26.624135120000002 25.67355860000001 10.912348889999997 -9.9467532021053787e-05 9.9225311792187595e-05 1.5307713086498169e-08 
848 1 24.722664200000001 25.673269340000004 13.33731538 9.9169095699674448e-05 -9.9508710697859826e-05 -1.5080269588629847e-08 
849 2 26.624325030000012 23.771685970000004 10.490803799999998 -0.00010886276168864395 -0.00026059213667424096 1.1905841749715109 
850 2 24.722474190000003 27.575141870000003 13.758860469999998 0.00010897096830730655 0.00026074251270302717 -1.190584175063542 
851 2 26.624268390000001 25.673458190000002 12.91577025 -0.00026100313525089278 -0.00010899592628646482 1.1905836026912704 
852 2 24.722530820000003 25.673369650000005 11.333894019999999 0.00026119336488617494 0.00010912894906015339 -1.190583602826607 
853 1 30.427611949999992 25.67355860000001 10.912348889999997 -9.9467532028926775e-05 9.922531180207167e-05 1.5307721215607195e-08 
854 1 28.526141030000005 25.673269340000004 13.33731538 9.9169095682907424e-05 -9.9508710700225555e-05 -1.5080287901238221e-08 
855 2 30.427801859999999 23.771685970000004 10.490803799999998 -0.00010886276162321365 -0.00026059213666021486 1.1905841749715018 
856 2 28.525951020000008 27.575141870000003 13.758860469999998 0.0001089709682896671 0.00026074251270416017 -1.1905841750635422 
857 2 30.427745219999998 25.673458190000002 12.91577025 -0.00026100313520720231 -0.00010899592630546004 1.1905836026912389 
858 2 28.526007650000004 25.673369650000005 11.333894019999999 0.00026119336488842487 0.00010912894906151254 -1.1905836028265833 
859 1 34.23108878 25.67355860000001 10.912348889999997 -9.9467532016339621e-05 9.9225311792516813e-05 1.5307688006060971e-08 
860 1 32.329617859999999 25.673269340000004 13.33731538 9.9169095678142138e-05 -9.9508710703452574e-05 -1.5080265036715446e-08 
861 2 34.231278689999996 23.771685970000004 10.490803799999998 -0.00010886276162021952 -0.00026059213668541345 1.1905841749715123 
862 2 32.329427850000016 27.575141870000003 13.758860469999998 0.00010897096831206238 0.00026074251269268128 -1.1905841750635657 
863 2 34.231222050000014 25.673458190000002 12.91577025 -0.00026100313532573249 -0.00010899592631702371 1.1905836026912726 
864 2 32.329484480000005 25.673369650000005 11.333894019999999 0.00026119336487824552 0.00010912894905302367 -1.190583602826577 
865 1 9.508477049999998 8.5578909900000024 15.76228167 -9.9467532048258533e-05 9.9225311788686543e-05 1.5307703604694467e-08 
866 1 7.6070061300000011 8.5576017300000018 18.187248159999999 9.916909569607224e-05 -9.9508710659224064e-05 -1.5080297122160857e-08 
867 2 9.5086669600000011 6.65601836 15.340736579999998 -0.00010886276163246666 -0.00026059213663545688 1.190584174971492 
868 2 7.6068161199999995 10.45947426 18.608793249999998 0.0001089709683338505 0.00026074251277592372 -1.1905841750635702 
869 2 9.5086103199999989 8.5577905800000007 17.765703029999997 -0.00026100313523561014 -0.00010899592629927402 1.1905836026912369 
870 2 7.6068727499999991 8.5577020400000006 16.183826799999999 0.00026119336489516254 0.00010912894911811744 -1.1905836028266419 
871 1 13.311953879999999 8.5578909900000024 15.76228167 -9.9467532035523928e-05 9.9225311799971353e-05 1.530768890378037e-08 
872 1 11.41048296 8.5576017300000018 18.187248159999999 9.9169095656936879e-05 -9.9508710665448252e-05 -1.5080280482693276e-08 
873 2 13.31214379 6.65601836 15.340736579999998 -0.00010886276164196775 -0.00026059213664257337 1.1905841749715003 
874 2 11.410292949999999 10.45947426 18.608793249999998 0.00010897096836305978 0.0002607425127459477 -1.1905841750635742 
875 2 13.31208715 8.5577905800000007 17.765703029999997 -0.00026100313523578361 -0.00010899592629910575 1.1905836026912575 
876 2 11.41034958 8.5577020400000006 16.183826799999999 0.00026119336490228184 0.00010912894910621723 -1.1905836028266072 
877 1 17.115430709999998 8.5578909900000024 15.76228167 -9.9467532038812165e-05 9.9225311800288374e-05 1.5307697165400924e-08 
878 1 15.213959790000001 8.5576017300000018 18.187248159999999 9.9169095681711386e-05 -9.9508710672669052e-05 -1.5080292518860356e-08 
879 2 17.115620620000001 6.65601836 15.340736579999998 -0.00010886276163858877 -0.00026059213664364478 1.1905841749715094 
880 2 15.21376978 10.45947426 18.608793249999998 0.00010897096835589884 0.00026074251275080395 -1.1905841750635768 
881 2 17.115563980000001 8.5577905800000007 17.765703029999997 -0.00026100313526055286 -0.00010899592629415311 1.1905836026912493 
882 2 15.213826409999999 8.5577020400000006 16.183826799999999 0.00026119336491257071 0.00010912894910991566 -1.1905836028265993 
883 1 20.918907539999999 8.5578909900000024 15.76228167 -9.9467532054045585e-05 9.9225311794293169e-05 1.530767851365411e-08 
884 1 19.017436619999998 8.5576017300000018 18.187248159999999 9.9169095670524209e-05 -9.9508710654783172e-05 -1.5080276555279326e-08 
885 2 20.919097449999995 6.65601836 15.340736579999998 -0.00010886276160048637 -0.00026059213664608727 1.1905841749715105 
886 2 19.017246610000001 10.45947426 18.608793249999998 0.00010897096835159922 0.00026074251274567362 -1.1905841750635697 
887 2 20.919040809999998 8.5577905800000007 17.765703029999997 -0.00026100313521218183 -0.00010899592631480326 1.1905836026912751 
888 2 19.017303240000004 8.5577020400000006 16.183826799999999 0.00026119336486991472 0.000109128949109083 -1.1905836028265975 
889 1 24.722384370000015 8.5578909900000024 15.76228167 -9.9467532055146321e-05 9.9225311802064731e-05 1.5307689893440113e-08 
890 1 22.820913450000006 8.5576017300000018 18.187248159999999 9.9169095660439719e-05 -9.9508710670215272e-05 -1.5080277526724473e-08 
891 2 24.722574280000007 6.65601836 15.340736579999998 -0.00010886276166635939 -0.00026059213665630132 1.1905841749715116 
892 2 22.820723440000002 10.45947426 18.608793249999998 0.00010897096834451493 0.00026074251273869309 -1.1905841750635777 
893 2 24.72251764 8.5577905800000007 17.765703029999997 -0.00026100313521800356 -0.00010899592630556065 1.1905836026912584 
894 2 22.820780070000005 8.5577020400000006 16.183826799999999 0.00026119336488239758 0.00010912894908454707 -1.1905836028266237 
895 1 28.525861200000008 8.5578909900000024 15.76228167 -9.9467532095138243e-05 9.9225311808285788e-05 1.5307670727642556e-08 
896 1 26.62439028 8.5576017300000018 18.187248159999999 9.9169095681130308e-05 -9.9508710663442912e-05 -1.5080297149916433e-08 
897 2 28.526051110000008 6.65601836 15.340736579999998 -0.00010886276168428459 -0.00026059213666794511 1.190584174971504 
898 2 26.624200270000003 10.45947426 18.608793249999998 0.00010897096832273646 0.00026074251275119698 -1.1905841750635529 
899 2 28.525994470000001 8.5577905800000007 17.765703029999997 -0.00026100313525175174 -0.00010899592630053689 1.1905836026912797 
900 2 26.624256900000006 8.5577020400000006 16.183826799999999 0.00026119336484848308 0.00010912894909401172 -1.1905836028265813 
901 1 32.329338030000017 8.5578909900000024 15.76228167 -9.9467532087470223e-05 9.9225311806436234e-05 1.5307661790919802e-08 
902 1 30.427867110000001 8.5576017300000018 18.187248159999999 9.9169095641978358e-05 -9.9508710679500624e-05 -1.5080277803846548e-08 
903 2 32.329527939999998 6.65601836 15.340736579999998 -0.00010886276160548825 -0.00026059213662451772 1.190584174971496 
904 2 30.4276771 10.45947426 18.608793249999998 0.00010897096834374363 0.00026074251275910168 -1.1905841750635635 
905 2 32.329471299999994 8.5577905800000007 17.765703029999997 -0.00026100313515207973 -0.00010899592628069166 1.1905836026912535 
906 2 30.42773373 8.5577020400000006 16.183826799999999 0.00026119336492258505 0.00010912894910571557 -1.1905836028266088 
907 1 36.132814860000011 8.5578909900000024 15.76228167 -9.9467532038766127e-05 9.9225311766870661e-05 1.5307707768030809e-08 
908 1 34.231343940000002 8.5576017300000018 18.187248159999999 9.9169095657269946e-05 -9.9508710684120816e-05 -1.5080301313252775e-08 
909 2 36.133004769999999 6.65601836 15.340736579999998 -0.00010886276163123154 -0.00026059213663637282 1.1905841749715007 
910 2 34.231153930000005 10.45947426 18.608793249999998 0.00010897096833981795 0.00026074251272539123 -1.1905841750635826 
911 2 36.132948130000017 8.5577905800000007 17.765703029999997 -0.00026100313538157671 -0.00010899592629657652 1.1905836026912591 
912 2 34.231210560000001 8.5577020400000006 16.183826799999999 0.00026119336491851192 0.00010912894910159593 -1.1905836028265366 
913 1 9.5084749299999967 12.361367820000003 15.76228167 -9.9467532054142715e-05 9.922531181803633e-05 1.5307701439759569e-08 
914 1 7.6070040100000007 12.361078560000001 18.187248159999999 9.9169095676143737e-05 -9.9508710701717851e-05 -1.5080298565450789e-08 
915 2 9.5086648400000016 10.45949519 15.340736579999998 -0.00010886276164195907 -0.00026059213664560545 1.190584174971514 
916 2 7.606814 14.262951090000001 18.608793249999998 0.0001089709683385065 0.00026074251270997214 -1.1905841750635773 
917 2 9.508608200000003 12.361267410000002 17.765703029999997 -0.00026100313526618985 -0.00010899592629373331 1.1905836026912464 
918 2 7.6068706299999995 12.36117887 16.183826799999999 0.00026119336490915135 0.00010912894906171464 -1.1905836028265941 
919 1 13.311951759999999 12.361367820000003 15.76228167 -9.9467532030127204e-05 9.9225311818898962e-05 1.5307701173913196e-08 
920 1 11.410480840000002 12.361078560000001 18.187248159999999 9.9169095679103175e-05 -9.9508710689963364e-05 -1.5080277346313231e-08 
921 2 13.312141669999999 10.45949519 15.340736579999998 -0.00010886276163625183 -0.00026059213665065219 1.1905841749715118 
922 2 11.410290830000001 14.262951090000001 18.608793249999998 0.00010897096834477926 0.00026074251274330875 -1.1905841750635775 
923 2 13.312085029999999 12.361267410000002 17.765703029999997 -0.00026100313522357116 -0.00010899592629712706 1.1905836026912493 
924 2 11.410347460000001 12.36117887 16.183826799999999 0.00026119336490872808 0.0001091289490864544 -1.1905836028266186 
925 1 17.11542859 12.361367820000003 15.76228167 -9.9467532036651309e-05 9.9225311801905136e-05 1.5307713267104228e-08 
926 1 15.213957669999996 12.361078560000001 18.187248159999999 9.9169095690882679e-05 -9.9508710676416055e-05 -1.5080284706304483e-08 
927 2 17.115618499999997 10.45949519 15.340736579999998 -0.00010886276163309142 -0.00026059213664401948 1.1905841749715238 
928 2 15.213767659999998 14.262951090000001 18.608793249999998 0.00010897096836076994 0.00026074251273087621 -1.1905841750635735 
929 2 17.115561860000003 12.361267410000002 17.765703029999997 -0.00026100313528414911 -0.00010899592630071731 1.1905836026912644 
930 2 15.21382429 12.36117887 16.183826799999999 0.00026119336491042594 0.00010912894908460258 -1.1905836028265913 
931 1 20.918905420000002 12.361367820000003 15.76228167 -9.9467532040337569e-05 9.9225311799670812e-05 1.5307691548366309e-08 
932 1 19.017434499999993 12.361078560000001 18.187248159999999 9.9169095690652314e-05 -9.9508710696832869e-05 -1.508027818938884e-08 
933 2 20.919095330000001 10.45949519 15.340736579999998 -0.00010886276162422025 -0.00026059213664855752 1.1905841749715353 
934 2 19.017244489999992 14.262951090000001 18.608793249999998 0.00010897096838502722 0.00026074251273231104 -1.1905841750635744 
935 2 20.919038690000001 12.361267410000002 17.765703029999997 -0.00026100313525384219 -0.0001089959262796647 1.1905836026912726 
936 2 19.017301119999999 12.36117887 16.183826799999999 0.00026119336491649801 0.00010912894908240989 -1.1905836028266044 
937 1 24.722382250000003 12.361367820000003 15.76228167 -9.9467532055489362e-05 9.92253118021931e-05 1.530767761506735e-08 
938 1 22.820911329999998 12.361078560000001 18.187248159999999 9.9169095682994594e-05 -9.9508710694910796e-05 -1.5080292490449176e-08 
939 2 24.722572159999999 10.45949519 15.340736579999998 -0.00010886276164846655 -0.00026059213664693381 1.1905841749715216 
940 2 22.820721320000001 14.262951090000001 18.608793249999998 0.00010897096835199602 0.00026074251274309755 -1.1905841750635839 
941 2 24.722515519999998 12.361267410000002 17.765703029999997 -0.00026100313522343298 -0.00010899592628348109 1.1905836026912728 
942 2 22.82077795 12.36117887 16.183826799999999 0.00026119336490596575 0.00010912894909634319 -1.1905836028266081 
943 1 28.525859080000004 12.361367820000003 15.76228167 -9.9467532047771944e-05 9.9225311776470973e-05 1.5307688473514738e-08 
944 1 26.624388159999999 12.361078560000001 18.187248159999999 9.9169095678076653e-05 -9.9508710680276669e-05 -1.5080270043127397e-08 
945 2 28.52604899 10.45949519 15.340736579999998 -0.00010886276163753206 -0.00026059213661782987 1.1905841749715171 
946 2 26.624198150000002 14.262951090000001 18.608793249999998 0.00010897096832414699 0.00026074251274160222 -1.1905841750635613 
947 2 28.525992349999999 12.361267410000002 17.765703029999997 -0.00026100313523713371 -0.00010899592628318966 1.1905836026912711 
948 2 26.624254780000001 12.36117887 16.183826799999999 0.00026119336488423866 0.00010912894910072857 -1.1905836028265886 
949 1 32.329335909999998 12.361367820000003 15.76228167 -9.9467532045552365e-05 9.9225311797082957e-05 1.5307679387954742e-08 
950 1 30.427864990000003 12.361078560000001 18.187248159999999 9.9169095684801742e-05 -9.9508710693309646e-05 -1.5080299877769099e-08 
951 2 32.329525819999994 10.45949519 15.340736579999998 -0.00010886276156486449 -0.00026059213661419525 1.190584174971516 
952 2 30.427674979999992 14.262951090000001 18.608793249999998 0.00010897096836680158 0.00026074251275116315 -1.1905841750635877 
953 2 32.329469179999997 12.361267410000002 17.765703029999997 -0.00026100313518651747 -0.00010899592629379402 1.1905836026912053 
954 2 30.427731610000002 12.36117887 16.183826799999999 0.00026119336490298961 0.00010912894910469675 -1.1905836028265928 
955 1 36.132812739999999 12.361367820000003 15.76228167 -9.9467531987362801e-05 9.922531184670437e-05 1.5307691780819255e-08 
956 1 34.231341819999997 12.361078560000001 18.187248159999999 9.9169095664930484e-05 -9.9508710679027234e-05 -1.5080285575841401e-08 
957 2 36.13300264999998 10.45949519 15.340736579999998 -0.00010886276156610308 -0.0002605921366694245 1.1905841749715287 
958 2 34.23115181 14.262951090000001 18.608793249999998 0.00010897096836600534 0.00026074251272367309 -1.1905841750635888 
959 2 36.132946009999998 12.361267410000002 17.765703029999997 -0.00026100313520449614 -0.00010899592630180671 1.1905836026913101 
960 2 34.231208440000017 12.36117887 16.183826799999999 0.00026119336474405251 0.00010912894910099832 -1.1905836028265941 
961 1 9.5084728100000007 16.164844649999999 15.76228167 -9.9467532018227001e-05 9.9225311803332705e-05 1.5307695805377719e-08 
962 1 7.6070018899999976 16.164555390000004 18.187248159999999 9.916909567819765e-05 -9.9508710686451742e-05 -1.5080300008740721e-08 
963 2 9.5086627200000002 14.262972020000001 15.340736579999998 -0.00010886276164156355 -0.00026059213667866895 1.1905841749715049 
964 2 7.6068118799999995 18.066427920000002 18.608793249999998 0.00010897096835366105 0.00026074251274605786 -1.1905841750635806 
965 2 9.5086060799999998 16.164744240000001 17.765703029999997 -0.00026100313524421437 -0.00010899592631246225 1.1905836026912642 
966 2 7.60686851 16.164655700000004 16.183826799999999 0.00026119336490804113 0.00010912894907364818 -1.1905836028266275 
967 1 13.311949640000002 16.164844649999999 15.76228167 -9.9467532064153805e-05 9.922531180524395e-05 1.5307687937105713e-08 
968 1 11.410478719999997 16.164555390000004 18.187248159999999 9.9169095676959057e-05 -9.9508710663289172e-05 -1.508030444963282e-08 
969 2 13.312139550000001 14.262972020000001 15.340736579999998 -0.00010886276164238061 -0.00026059213666727442 1.1905841749715051 
970 2 11.41028871 18.066427920000002 18.608793249999998 0.00010897096835614517 0.00026074251272869328 -1.1905841750635693 
971 2 13.312082910000001 16.164744240000001 17.765703029999997 -0.00026100313525218716 -0.00010899592631079815 1.1905836026912713 
972 2 11.410345339999999 16.164655700000004 16.183826799999999 0.00026119336491923356 0.00010912894906852191 -1.1905836028265906 
973 1 17.115426470000003 16.164844649999999 15.76228167 -9.9467532048109645e-05 9.9225311809726462e-05 1.5307701217714964e-08 
974 1 15.213955550000001 16.164555390000004 18.187248159999999 9.9169095664882522e-05 -9.9508710665844623e-05 -1.5080283421782406e-08 
975 2 17.115616380000006 14.262972020000001 15.340736579999998 -0.00010886276165377922 -0.00026059213665734899 1.1905841749715211 
976 2 15.213765539999999 18.066427920000002 18.608793249999998 0.00010897096835429596 0.00026074251272712384 -1.1905841750635742 
977 2 17.115559740000002 16.164744240000001 17.765703029999997 -0.00026100313526166178 -0.00010899592630863458 1.1905836026912662 
978 2 15.213822169999998 16.164655700000004 16.183826799999999 0.00026119336493272364 0.00010912894906648621 -1.1905836028266015 
979 1 20.918903300000004 16.164844649999999 15.76228167 -9.9467532051910072e-05 9.922531180640013e-05 1.5307702938560652e-08 
980 1 19.017432380000006 16.164555390000004 18.187248159999999 9.9169095668710447e-05 -9.9508710663308471e-05 -1.5080289406110836e-08 
981 2 20.91909321 14.262972020000001 15.340736579999998 -0.00010886276163225232 -0.00026059213666194649 1.1905841749715089 
982 2 19.017242369999998 18.066427920000002 18.608793249999998 0.00010897096836387748 0.00026074251274093695 -1.1905841750635693 
983 2 20.919036569999996 16.164744240000001 17.765703029999997 -0.00026100313519298582 -0.00010899592631219033 1.190583602691254 
984 2 19.017299000000001 16.164655700000004 16.183826799999999 0.00026119336490635758 0.00010912894908653831 -1.1905836028266177 
985 1 24.722380130000005 16.164844649999999 15.76228167 -9.946753205175621e-05 9.9225311815900343e-05 1.5307698941757764e-08 
986 1 22.82090921 16.164555390000004 18.187248159999999 9.9169095663915671e-05 -9.9508710672903226e-05 -1.5080302118164468e-08 
987 2 24.722570040000001 14.262972020000001 15.340736579999998 -0.00010886276164614661 -0.00026059213665686071 1.1905841749715078 
988 2 22.820719200000003 18.066427920000002 18.608793249999998 0.00010897096833889204 0.00026074251270854934 -1.1905841750635662 
989 2 24.7225134 16.164744240000001 17.765703029999997 -0.00026100313523400162 -0.000108995926311398 1.1905836026912702 
990 2 22.820775830000002 16.164655700000004 16.183826799999999 0.00026119336488973372 0.00010912894907631038 -1.1905836028265893 
991 1 28.525856960000006 16.164844649999999 15.76228167 -9.9467532043015603e-05 9.9225311822020447e-05 1.5307708709877237e-08 
992 1 26.624386040000001 16.164555390000004 18.187248159999999 9.916909567540301e-05 -9.9508710676839314e-05 -1.5080287685265148e-08 
993 2 28.526046870000002 14.262972020000001 15.340736579999998 -0.00010886276163778533 -0.00026059213665763332 1.1905841749715158 
994 2 26.624196030000004 18.066427920000002 18.608793249999998 0.00010897096831018627 0.00026074251272953115 -1.1905841750635633 
995 2 28.525990230000001 16.164744240000001 17.765703029999997 -0.00026100313523469551 -0.00010899592631683505 1.1905836026912611 
996 2 26.624252660000003 16.164655700000004 16.183826799999999 0.00026119336487802 0.00010912894907016079 -1.1905836028265955 
997 1 32.32933379 16.164844649999999 15.76228167 -9.9467532046575852e-05 9.9225311808679014e-05 1.5307695985788961e-08 
998 1 30.427862870000002 16.164555390000004 18.187248159999999 9.9169095681965469e-05 -9.9508710637025675e-05 -1.5080297050169833e-08 
999 2 32.329523699999996 14.262972020000001 15.340736579999998 -0.00010886276160811462 -0.0002605921367045063 1.1905841749715111 
1000 2 30.427672860000008 18.066427920000002 18.608793249999998 0.00010897096830510787 0.00026074251269416794 -1.1905841750635613 
1001 2 32.329467060000013 16.164744240000001 17.765703029999997 -0.00026100313534178909 -0.0001089959263408819 1.1905836026912862 
1002 2 30.427729490000004 16.164655700000004 16.183826799999999 0.00026119336488913264 0.00010912894904928794 -1.1905836028265551 
1003 1 36.132810620000001 16.164844649999999 15.76228167 -9.9467532040597995e-05 9.922531179816453e-05 1.53076983311351e-08 
1004 1 34.231339700000007 16.164555390000004 18.187248159999999 9.9169095677642538e-05 -9.9508710652968814e-05 -1.5080307558257289e-08 
1005 2 36.133000530000004 14.262972020000001 15.340736579999998 -0.00010886276165478909 -0.00026059213664309693 1.1905841749715016 
1006 2 34.231149690000002 18.066427920000002 18.608793249999998 0.00010897096835420228 0.00026074251273532881 -1.1905841750635857 
1007 2 36.132943890000014 16.164744240000001 17.765703029999997 -0.0002610031353551534 -0.00010899592631022207 1.1905836026912229 
1008 2 34.231206319999991 16.164655700000004 16.183826799999999 0.00026119336501954221 0.00010912894907523204 -1.1905836028266037 
1009 1 9.5084706899999993 19.968321480000004 15.76228167 -9.9467532053809649e-05 9.9225311789584181e-05 1.5307701578537447e-08 
1010 1 7.6069997699999972 19.968032220000001 18.187248159999999 9.9169095694018328e-05 -9.9508710671142265e-05 -1.5080316329019183e-08 
1011 2 9.5086605999999971 18.06644885 15.340736579999998 -0.0001088627616303503 -0.00026059213664855508 1.1905841749714978 
1012 2 7.60680976 21.86990475 18.608793249999998 0.00010897096835497944 0.0002607425127480864 -1.1905841750635837 
1013 2 9.5086039600000021 19.968221069999998 17.765703029999997 -0.00026100313527696595 -0.00010899592628574946 1.1905836026912604 
1014 2 7.6068663900000022 19.968132529999998 16.183826799999999 0.00026119336487340217 0.00010912894913494116 -1.1905836028265908 
1015 1 13.31194752 19.968321480000004 15.76228167 -9.9467532037846723e-05 9.922531180042558e-05 1.5307685760461431e-08 
1016 1 11.410476599999996 19.968032220000001 18.187248159999999 9.916909569927107e-05 -9.9508710680032289e-05 -1.508030546271133e-08 
1017 2 13.31213743 18.06644885 15.340736579999998 -0.00010886276163207982 -0.00026059213665321682 1.1905841749715125 
1018 2 11.410286589999998 21.86990475 18.608793249999998 0.00010897096836630371 0.00026074251275826999 -1.1905841750635697 
1019 2 13.31208079 19.968221069999998 17.765703029999997 -0.00026100313523851754 -0.00010899592627840522 1.1905836026912697 
1020 2 11.41034322 19.968132529999998 16.183826799999999 0.00026119336490815909 0.00010912894911048986 -1.190583602826613 
1021 1 17.115424349999998 19.968321480000004 15.76228167 -9.9467532043807491e-05 9.9225311803409046e-05 1.5307702661004896e-08 
1022 1 15.21395343 19.968032220000001 18.187248159999999 9.9169095679379579e-05 -9.9508710685730205e-05 -1.5080316837901331e-08 
1023 2 17.115614260000001 18.06644885 15.340736579999998 -0.00010886276162517168 -0.00026059213665360122 1.1905841749715211 
1024 2 15.213763419999999 21.86990475 18.608793249999998 0.00010897096835752948 0.00026074251275667686 -1.1905841750635711 
1025 2 17.115557620000001 19.968221069999998 17.765703029999997 -0.00026100313523910257 -0.00010899592627208353 1.1905836026912493 
1026 2 15.213820049999999 19.968132529999998 16.183826799999999 0.00026119336493003395 0.00010912894911870854 -1.1905836028266066 
1027 1 20.918901179999999 19.968321480000004 15.76228167 -9.9467532035495739e-05 9.9225311793201934e-05 1.5307695999666748e-08 
1028 1 19.017430259999998 19.968032220000001 18.187248159999999 9.9169095678829089e-05 -9.9508710686497821e-05 -1.5080290516333861e-08 
1029 2 20.919091090000002 18.06644885 15.340736579999998 -0.000108862761640713 -0.00026059213664879561 1.1905841749715032 
1030 2 19.01724025 21.86990475 18.608793249999998 0.00010897096834932229 0.00026074251274673646 -1.190584175063568 
1031 2 20.919034450000005 19.968221069999998 17.765703029999997 -0.00026100313526573838 -0.00010899592628026665 1.1905836026912615 
1032 2 19.017296880000004 19.968132529999998 16.183826799999999 0.0002611933648946586 0.00010912894910876554 -1.1905836028265975 
1033 1 24.72237801 19.968321480000004 15.76228167 -9.9467532019827039e-05 9.9225311807447496e-05 1.5307704270828282e-08 
1034 1 22.820907089999999 19.968032220000001 18.187248159999999 9.9169095719728664e-05 -9.9508710670524053e-05 -1.5080292514735305e-08 
1035 2 24.722567919999999 18.06644885 15.340736579999998 -0.00010886276163821136 -0.00026059213664415836 1.1905841749715222 
1036 2 22.820717080000001 21.86990475 18.608793249999998 0.00010897096836025104 0.00026074251276593746 -1.1905841750635551 
1037 2 24.722511279999999 19.968221069999998 17.765703029999997 -0.00026100313521400416 -0.00010899592628052946 1.1905836026912433 
1038 2 22.820773710000005 19.968132529999998 16.183826799999999 0.00026119336488087709 0.00010912894911552034 -1.1905836028266239 
1039 1 28.525854840000008 19.968321480000004 15.76228167 -9.9467532047084315e-05 9.9225311804851483e-05 1.5307682578034982e-08 
1040 1 26.624383919999993 19.968032220000001 18.187248159999999 9.9169095698608406e-05 -9.9508710697322495e-05 -1.5080294235580993e-08 
1041 2 28.526044750000008 18.06644885 15.340736579999998 -0.0001088627616620385 -0.00026059213667098695 1.1905841749715325 
1042 2 26.624193910000002 21.86990475 18.608793249999998 0.00010897096832071605 0.00026074251277082461 -1.1905841750635628 
1043 2 28.52598811 19.968221069999998 17.765703029999997 -0.00026100313522894967 -0.00010899592628246888 1.1905836026912744 
1044 2 26.624250540000013 19.968132529999998 16.183826799999999 0.00026119336480315194 0.00010912894910558536 -1.1905836028266101 
1045 1 32.329331670000002 19.968321480000004 15.76228167 -9.9467532073460596e-05 9.9225311805049553e-05 1.5307680081844133e-08 
1046 1 30.427860750000001 19.968032220000001 18.187248159999999 9.9169095692809225e-05 -9.9508710702177552e-05 -1.5080292316109467e-08 
1047 2 32.329521579999998 18.06644885 15.340736579999998 -0.00010886276160083225 -0.00026059213665626646 1.1905841749714972 
1048 2 30.42767074 21.86990475 18.608793249999998 0.00010897096833834517 0.00026074251278907987 -1.1905841750635573 
1049 2 32.329464939999994 19.968221069999998 17.765703029999997 -0.00026100313512724543 -0.00010899592626897119 1.1905836026913055 
1050 2 30.427727370000014 19.968132529999998 16.183826799999999 0.00026119336479280691 0.00010912894910547043 -1.1905836028265897 
1051 1 36.13280850000001 19.968321480000004 15.76228167 -9.9467532078623133e-05 9.9225311795381221e-05 1.5307712208922908e-08 
1052 1 34.231337580000016 19.968032220000001 18.187248159999999 9.9169095660434081e-05 -9.9508710695943498e-05 -1.50802900167335e-08 
1053 2 36.132998410000013 18.06644885 15.340736579999998 -0.00010886276167561965 -0.00026059213664768929 1.1905841749715029 
1054 2 34.231147570000005 21.86990475 18.608793249999998 0.00010897096834197595 0.00026074251275235339 -1.1905841750635751 
1055 2 36.132941770000002 19.968221069999998 17.765703029999997 -0.00026100313523702567 -0.00010899592628679357 1.1905836026911936 
1056 2 34.231204200000001 19.968132529999998 16.183826799999999 0.00026119336492310893 0.00010912894908398762 -1.1905836028266066 
1057 1 9.508468569999998 23.771798310000008 15.76228167 -9.9467532057417873e-05 9.9225311812320416e-05 1.5307693113086884e-08 
1058 1 7.6069976499999994 23.771509050000002 18.187248159999999 9.9169095700957222e-05 -9.9508710678368039e-05 -1.5080307336212684e-08 
1059 2 9.5086584800000011 21.869925680000001 15.340736579999998 -0.00010886276163827452 -0.00026059213664860479 1.1905841749715265 
1060 2 7.6068076399999995 25.673381580000001 18.608793249999998 0.00010897096835161407 0.00026074251274301255 -1.1905841750635771 
1061 2 9.5086018400000007 23.771697899999999 17.765703029999997 -0.00026100313524690145 -0.00010899592628594288 1.1905836026912475 
1062 2 7.6068642699999982 23.771609359999999 16.183826799999999 0.00026119336493712897 0.00010912894906479551 -1.190583602826621 
1063 1 13.311945400000001 23.771798310000008 15.76228167 -9.9467532039491241e-05 9.9225311796554964e-05 1.5307682031239639e-08 
1064 1 11.410474480000001 23.771509050000002 18.187248159999999 9.9169095680425035e-05 -9.9508710692316517e-05 -1.5080302950831737e-08 
1065 2 13.312135309999999 21.869925680000001 15.340736579999998 -0.00010886276163283443 -0.00026059213665756073 1.1905841749715214 
1066 2 11.410284470000001 25.673381580000001 18.608793249999998 0.00010897096835393513 0.00026074251275176076 -1.1905841750635873 
1067 2 13.312078670000002 23.771697899999999 17.765703029999997 -0.0002610031352491618 -0.0001089959262920736 1.1905836026912715 
1068 2 11.4103411 23.771609359999999 16.183826799999999 0.00026119336491151751 0.00010912894909987595 -1.1905836028266092 
1069 1 17.11542223 23.771798310000008 15.76228167 -9.9467532054425462e-05 9.922531179636096e-05 1.5307703063460742e-08 
1070 1 15.213951310000006 23.771509050000002 18.187248159999999 9.9169095659054664e-05 -9.950871068380946e-05 -1.5080314143596252e-08 
1071 2 17.115612140000003 21.869925680000001 15.340736579999998 -0.000108862761638986 -0.00026059213666073441 1.1905841749715229 
1072 2 15.213761299999994 25.673381580000001 18.608793249999998 0.00010897096837278811 0.00026074251275244278 -1.1905841750635819 
1073 2 17.115555500000003 23.771697899999999 17.765703029999997 -0.0002610031352615345 -0.00010899592628958732 1.1905836026912635 
1074 2 15.213817929999999 23.771609359999999 16.183826799999999 0.00026119336493179231 0.00010912894909119453 -1.1905836028265988 
1075 1 20.918899060000001 23.771798310000008 15.76228167 -9.9467532021026194e-05 9.9225311797408733e-05 1.5307727092850332e-08 
1076 1 19.017428140000007 23.771509050000002 18.187248159999999 9.9169095664006012e-05 -9.9508710692707697e-05 -1.5080297429206913e-08 
1077 2 20.919088970000001 21.869925680000001 15.340736579999998 -0.00010886276162894823 -0.00026059213665413552 1.1905841749715333 
1078 2 19.017238129999999 25.673381580000001 18.608793249999998 0.00010897096835846005 0.00026074251275615135 -1.1905841750635802 
1079 2 20.91903233 23.771697899999999 17.765703029999997 -0.00026100313524576944 -0.00010899592628418886 1.1905836026912389 
1080 2 19.017294759999999 23.771609359999999 16.183826799999999 0.00026119336493567982 0.00010912894909029247 -1.1905836028266048 
1081 1 24.722375889999995 23.771798310000008 15.76228167 -9.9467532041769326e-05 9.9225311784696679e-05 1.5307681965753828e-08 
1082 1 22.820904969999997 23.771509050000002 18.187248159999999 9.9169095666509611e-05 -9.9508710686112278e-05 -1.508030789305892e-08 
1083 2 24.722565800000005 21.869925680000001 15.340736579999998 -0.00010886276167466684 -0.00026059213665892162 1.1905841749715396 
1084 2 22.82071496 25.673381580000001 18.608793249999998 0.00010897096835818998 0.00026074251276744786 -1.1905841750635875 
1085 2 24.722509160000001 23.771697899999999 17.765703029999997 -0.00026100313524748785 -0.00010899592628728361 1.1905836026912806 
1086 2 22.82077159 23.771609359999999 16.183826799999999 0.00026119336490799385 0.00010912894911244142 -1.1905836028265966 
1087 1 28.525852720000003 23.771798310000008 15.76228167 -9.9467532039026687e-05 9.9225311774979124e-05 1.530771295446945e-08 
1088 1 26.624381800000005 23.771509050000002 18.187248159999999 9.9169095690673022e-05 -9.9508710680928925e-05 -1.5080297543698662e-08 
1089 2 28.526042630000006 21.869925680000001 15.340736579999998 -0.00010886276165993948 -0.00026059213664508942 1.1905841749715353 
1090 2 26.624191790000001 25.673381580000001 18.608793249999998 0.0001089709683264144 0.00026074251274588178 -1.1905841750635799 
1091 2 28.525985990000006 23.771697899999999 17.765703029999997 -0.00026100313527650999 -0.00010899592627187926 1.1905836026912551 
1092 2 26.624248420000001 23.771609359999999 16.183826799999999 0.00026119336490539047 0.00010912894911085935 -1.1905836028265981 
1093 1 32.329329549999997 23.771798310000008 15.76228167 -9.9467532012634252e-05 9.9225311793522952e-05 1.5307688852606027e-08 
1094 1 30.427858629999996 23.771509050000002 18.187248159999999 9.9169095707334065e-05 -9.9508710700396859e-05 -1.5080306066395099e-08 
1095 2 32.329519459999993 21.869925680000001 15.340736579999998 -0.00010886276156078442 -0.00026059213661870347 1.1905841749715267 
1096 2 30.427668619999999 25.673381580000001 18.608793249999998 0.00010897096834280688 0.00026074251275306874 -1.1905841750635877 
1097 2 32.32946282000001 23.771697899999999 17.765703029999997 -0.00026100313530650482 -0.00010899592627944873 1.1905836026912295 
1098 2 30.427725250000002 23.771609359999999 16.183826799999999 0.00026119336491965683 0.0001091289491201746 -1.1905836028265653 
1099 1 36.132806379999998 23.771798310000008 15.76228167 -9.9467532014119175e-05 9.9225311815741291e-05 1.5307696443755958e-08 
1100 1 34.231335459999997 23.771509050000002 18.187248159999999 9.916909570423238e-05 -9.9508710677246107e-05 -1.5080310167281397e-08 
1101 2 36.13299628999998 21.869925680000001 15.340736579999998 -0.00010886276155933072 -0.00026059213669140605 1.1905841749715143 
1102 2 34.23114545 25.673381580000001 18.608793249999998 0.00010897096836771925 0.00026074251274989203 -1.1905841750635882 
1103 2 36.132939650000012 23.771697899999999 17.765703029999997 -0.00026100313531718378 -0.000108995926296096 1.1905836026912897 
1104 2 34.231202080000017 23.771609359999999 16.183826799999999 0.0002611933647788129 0.00010912894910637856 -1.1905836028266001 
1105 1 9.5084664500000002 27.575275140000009 15.76228167 -9.9467532036157102e-05 9.9225311774142622e-05 1.530770668556336e-08 
1106 1 7.6069955300000007 27.574985880000003 18.187248159999999 9.9169095656270745e-05 -9.9508710679208079e-05 -1.5080291904112642e-08 
1107 2 9.5086563599999998 25.673402510000003 15.340736579999998 -0.00010886276162575675 -0.00026059213666346573 1.1905841749715069 
1108 2 7.60680552 29.476858410000002 18.608793249999998 0.00010897096834899811 0.00026074251272284465 -1.1905841750635429 
1109 2 9.5085997199999994 27.575174730000001 17.765703029999997 -0.000261003135238181 -0.00010899592629991239 1.1905836026912613 
1110 2 7.6068621499999995 27.57508619 16.183826799999999 0.00026119336491725598 0.00010912894910395168 -1.190583602826631 
1111 1 13.311943280000001 27.575275140000009 15.76228167 -9.9467532057124705e-05 9.9225311764575459e-05 1.5307689755095916e-08 
1112 1 11.41047236 27.574985880000003 18.187248159999999 9.9169095662141049e-05 -9.9508710687215562e-05 -1.5080279747170522e-08 
1113 2 13.312133190000001 25.673402510000003 15.340736579999998 -0.00010886276164022782 -0.00026059213665003463 1.1905841749715131 
1114 2 11.410282349999999 29.476858410000002 18.608793249999998 0.00010897096836920764 0.00026074251272117585 -1.1905841750635531 
1115 2 13.31207655 27.575174730000001 17.765703029999997 -0.00026100313524581031 -0.00010899592629848829 1.1905836026912666 
1116 2 11.410338979999999 27.57508619 16.183826799999999 0.00026119336492617246 0.0001091289490889949 -1.1905836028265959 
1117 1 17.115420110000002 27.575275140000009 15.76228167 -9.9467532047324493e-05 9.9225311771422575e-05 1.5307694528621241e-08 
1118 1 15.213949190000001 27.574985880000003 18.187248159999999 9.9169095669681377e-05 -9.9508710691875897e-05 -1.5080279254288826e-08 
1119 2 17.115610020000002 25.673402510000003 15.340736579999998 -0.00010886276162544585 -0.00026059213666032068 1.1905841749715196 
1120 2 15.21375918 29.476858410000002 18.608793249999998 0.00010897096835715825 0.00026074251272607596 -1.1905841750635491 
1121 2 17.115553380000001 27.575174730000001 17.765703029999997 -0.00026100313525275181 -0.00010899592631258281 1.1905836026912695 
1122 2 15.21381581 27.57508619 16.183826799999999 0.00026119336491276521 0.00010912894908897408 -1.1905836028265946 
1123 1 20.91889694 27.575275140000009 15.76228167 -9.9467532047024088e-05 9.9225311793293969e-05 1.5307701273226115e-08 
1124 1 19.017426020000002 27.574985880000003 18.187248159999999 9.9169095677741079e-05 -9.9508710680762391e-05 -1.5080270254763661e-08 
1125 2 20.919086849999992 25.673402510000003 15.340736579999998 -0.00010886276159647957 -0.00026059213666296873 1.1905841749715163 
1126 2 19.017236009999991 29.476858410000002 18.608793249999998 0.00010897096838610146 0.00026074251272412141 -1.1905841750635529 
1127 2 20.919030209999999 27.575174730000001 17.765703029999997 -0.00026100313522327018 -0.00010899592630755905 1.190583602691266 
1128 2 19.017292640000001 27.57508619 16.183826799999999 0.00026119336489747081 0.00010912894908210458 -1.190583602826587 
1129 1 24.722373770000004 27.575275140000009 15.76228167 -9.9467532050231537e-05 9.9225311770423374e-05 1.5307678680187564e-08 
1130 1 22.82090285 27.574985880000003 18.187248159999999 9.9169095674991067e-05 -9.950871068264977e-05 -1.5080282578239235e-08 
1131 2 24.722563680000007 25.673402510000003 15.340736579999998 -0.00010886276167417569 -0.00026059213665666648 1.190584174971524 
1132 2 22.820712840000002 29.476858410000002 18.608793249999998 0.00010897096834595627 0.00026074251272323323 -1.1905841750635668 
1133 2 24.72250704 27.575174730000001 17.765703029999997 -0.00026100313523586081 -0.00010899592631055666 1.1905836026912788 
1134 2 22.820769470000002 27.57508619 16.183826799999999 0.00026119336489900755 0.0001091289490722791 -1.1905836028266008 
1135 1 28.525850600000005 27.575275140000009 15.76228167 -9.9467532030157439e-05 9.9225311794852116e-05 1.5307688710434935e-08 
1136 1 26.624379680000001 27.574985880000003 18.187248159999999 9.9169095670469999e-05 -9.9508710678541945e-05 -1.5080283077839596e-08 
1137 2 28.526040510000009 25.673402510000003 15.340736579999998 -0.0001088627616756075 -0.00026059213665957632 1.1905841749715274 
1138 2 26.624189670000003 29.476858410000002 18.608793249999998 0.00010897096831971142 0.00026074251270979953 -1.190584175063546 
1139 2 28.525983870000001 27.575174730000001 17.765703029999997 -0.00026100313524423302 -0.00010899592632285238 1.1905836026912731 
1140 2 26.624246300000003 27.57508619 16.183826799999999 0.00026119336488532948 0.00010912894907671999 -1.1905836028265904 
1141 1 32.329327429999999 27.575275140000009 15.76228167 -9.9467532051651653e-05 9.9225311769216007e-05 1.5307675030329371e-08 
1142 1 30.427856510000002 27.574985880000003 18.187248159999999 9.9169095682982017e-05 -9.9508710659205416e-05 -1.5080283500244762e-08 
1143 2 32.329517339999995 25.673402510000003 15.340736579999998 -0.00010886276161846745 -0.00026059213670472439 1.1905841749715107 
1144 2 30.427666500000001 29.476858410000002 18.608793249999998 0.00010897096834955843 0.00026074251270034985 -1.1905841750635442 
1145 2 32.329460700000013 27.575174730000001 17.765703029999997 -0.00026100313535294684 -0.00010899592631437652 1.1905836026913021 
1146 2 30.427723130000004 27.57508619 16.183826799999999 0.00026119336489500988 0.00010912894907392449 -1.1905836028265402 
1147 1 36.13280426 27.575275140000009 15.76228167 -9.9467532035379946e-05 9.9225311760042789e-05 1.5307695888644446e-08 
1148 1 34.231333340000006 27.574985880000003 18.187248159999999 9.9169095675866181e-05 -9.9508710688686608e-05 -1.5080291571045734e-08 
1149 2 36.132994170000003 25.673402510000003 15.340736579999998 -0.00010886276164252806 -0.00026059213663266051 1.1905841749715154 
1150 2 34.231143330000002 29.476858410000002 18.608793249999998 0.00010897096837397119 0.00026074251276077265 -1.1905841750635606 
1151 2 36.132937530000014 27.575174730000001 17.765703029999997 -0.00026100313534149766 -0.00010899592628535459 1.1905836026912464 
1152 2 34.231199959999991 27.57508619 16.183826799999999 0.00026119336501551071 0.00010912894908916837 -1.190583602826591 
