ITEM: TIMESTEP
0
ITEM: NUMBER OF ATOMS
1152
ITEM: BOX BOUNDS pp pp pp
0.0000000000000000e+00 3.7251297835256388e+01
0.0000000000000000e+00 2.4834198556837592e+01
0.0000000000000000e+00 1.2417099278418796e+01
ITEM: ATOMS id type x y z fx fy fz 
1 2 2.9704911709521791 11.021604344931998 5.3254020994507201 -0.18851284229804294 -1.2676154297282258 0.3845423816041163 
2 1 2.4836909790974153 11.645604591069674 4.7741418819415973 -0.16588184840139983 0.79937902338798028 -0.7222769349835978 
3 1 3.7344614722258798 11.412304498877607 5.8007522866596037 0.026867026373312758 0.28928585256427791 -0.21161829161288787 
4 2 11.293604452290623 11.194004413039899 0.086768434406444148 0.2438543954210397 -0.52326564158563971 -0.62094388901023412 
5 1 10.406604102395265 10.926604307686388 0.34829313707207921 -0.18833589919361349 0.081357446110471507 0.13108606481455631 
6 1 11.449104513331001 10.599104178298328 11.709404616325905 0.040707753947324177 0.29595789367529102 0.34579506929675807 
7 2 10.205504023180653 7.995033152033475 7.5217829654178621 -1.952959167546116 0.10243373635276228 -1.8710282967325931 
8 1 9.7793738554156366 7.3029528789718032 8.0675031801624097 0.17212279713186943 0.50236006328798077 -0.11437467273884766 
9 1 9.4649637312778854 8.1872532275752068 6.7791426723926458 2.0131704607051661 -0.52571825493456392 1.8714566028141255 
10 2 5.7970822855522348 4.2497216753312221 5.1475620293120645 -0.024833542125247413 2.0720127144663922 -0.13506085102436974 
11 1 5.7612022710765203 5.2613620743383569 4.9832719644125616 -0.32626001330409721 -1.395071946370146 0.38645535183267887 
12 1 6.4122925278307878 4.0216515854280868 4.4326917475541663 0.3209162399960015 -0.53092432816205659 -0.15143251735896299 
13 2 3.8017414985710816 4.3111216993802515 1.0677604209294989 1.6941126220776626 0.48923057798477265 -0.0012808754862222364 
14 1 4.5705818018203406 4.6181918207740882 1.6758806607111565 -1.1327960724543185 -0.14017552241095732 -1.1898802167798654 
15 1 3.8759015282005351 4.9442919494138504 0.26631810518189203 -0.087285757485074889 -0.14489993148627731 0.51530062500591611 
16 2 3.9124015425691776 9.8946939005891146 8.7282534409157506 -1.0235357321745027 1.1506707902914501 -0.48333464037479873 
17 1 4.3457317134266225 10.74490423589279 8.4890633465657999 0.25065651846836662 -0.72420903245722801 0.4554699851798929 
18 1 2.9833011758411585 10.195004019155942 8.4850533448684793 0.49104413401960684 -0.87801213523293897 0.082116418630161683 
19 2 8.3393232873643495 3.7590814820741132 3.4283113513389023 0.39308214350939713 -1.1569620533900877 -1.0235356030559364 
20 1 9.2067936295197406 4.0763416070170182 3.8229515068914997 -0.52025910253266572 -0.54102302399448998 -1.0238359303372493 
21 1 8.5085233542154324 3.0391911982982793 2.6565710474467563 -0.12639463702870096 1.6259774056831588 1.9338547634182237 
22 2 0.71744528292634369 3.902101538424577 9.6309337967578426 -0.79338962098446641 0.1884805351528076 2.5165293913557933 
23 1 1.2862805068999164 3.9857315715055273 8.906383511277447 2.6303297870183102 0.49702026487789869 -2.3186813830585757 
24 1 12.363104874029196 3.6633914443160664 9.142853604082843 -1.9194486403628348 -0.40270726406763258 -0.31180586586951792 
25 2 2.5230709949147001 4.4280017457352949 7.4511729374968896 0.97811231429688961 1.8433858037843505 0.32867058406906574 
26 1 2.8994311429040769 5.3669221158372968 7.400512917328701 -0.63891792816551973 -1.4600615471455671 0.10956628259921253 
27 1 2.7260310748664502 4.0410415929873871 6.5771325930620641 -0.17658395167055851 -0.15014429249184255 -0.21618256970222577 
28 2 10.402804100968941 11.807704655032975 5.5567121905866941 0.24518578059245671 -0.59464874313016314 -0.88028674125462136 
29 1 9.616253790740835 12.352204869715088 5.6265222179288745 -0.63056179319441941 0.70025665803960357 0.24513880426188692 
30 1 10.557404161755061 11.446104512483473 6.4520525436848697 0.43536494579823054 -0.028130510453628813 0.78651731544768055 
31 2 3.6445414366976498 11.934904705256042 0.44243817423489507 -0.77633759272990344 1.0612666404184403 0.18405919735148571 
32 1 3.2755612914282102 11.210204419204091 12.304504850947586 -0.0086364107653841976 0.12039184433169302 0.081450451043698427 
33 1 2.9302711551092573 0.24166009511830802 0.49262919416827827 0.65681916327488921 -0.96069759939700516 -0.3787361597284839 
34 2 5.5036721694639033 8.183633226305572 11.082804369100916 -0.39348897692215734 0.051963351672907235 -1.3712886462453762 
35 1 6.2577024669063785 7.923083123592825 10.496004137706032 0.0430047981575616 0.11444997879229901 0.40849025091240981 
36 1 5.8598723099586758 8.4768733415697497 11.92740470207886 0.48526050843789775 -0.067803689829869285 1.2885245504958267 
37 2 7.1908228346642531 3.1664412483590785 10.594704176702498 -0.72741794226186873 0.14743510448593891 -0.14616383107592743 
38 1 6.5512525826461978 3.464581365713125 9.9003339030291553 0.68424104452981627 -0.041251916860506124 0.42524854010883717 
39 1 6.6159226080423776 2.8479011225959403 11.337604469307268 0.10172721701248512 -0.13896832330430689 -0.43100636970656597 
40 2 5.2716720783446682 1.9218107576355168 12.396404887141021 0.51218713430905616 2.7639736202985272 0.78943490346925826 
41 1 4.6910818494450197 1.1863804675644385 12.334604862802594 -1.1124302717752341 -1.5588307087556041 -0.024588071405834404 
42 1 4.6916418496385033 2.6821710575012929 0.35009513787044594 0.81544877624167134 -0.88389271588715446 -0.42508475654294009 
43 2 5.0477319900669197 11.869504679371399 6.7558526632023783 0.18841924439702964 0.45538909148034212 0.40396534265637535 
44 1 5.7240722564240603 11.224804425269056 7.0185827669896161 0.32209202405093951 0.1041290504334729 -0.058998077665418563 
45 1 5.2667920765073992 0.31234412318013349 7.2043328399273818 0.067624802711279686 -0.21089212083698822 -0.42402338464303629 
46 2 0.54936121641170799 10.061203966539134 2.1976808665107979 0.16353668734550464 0.35529781657405546 -0.5350363975160487 
47 1 1.0159204006748981 10.777204248545713 2.7246210742564401 -0.52993668506038616 -0.25527094539867806 -0.93723941213671447 
48 1 0.1296840509036539 10.412804105028789 1.352370533296994 0.48634490895838789 0.058652234011128623 1.1964287261324094 
49 2 11.390304490369283 1.0552104161492506 9.8494538827282572 -1.1219173783799996 1.7460213514716154 -0.82926067950958637 
50 1 11.573304562706538 0.20124107954020051 9.4812837378993233 0.053699051226839892 -1.3820246444832893 -0.48861292351812829 
51 1 10.87410428703366 1.5012705919436298 9.0729135769508886 0.77460561347721557 -0.3928083122370718 1.0215752838100358 
52 2 9.4717137337140045 9.2332736401051143 4.6154218193918002 -0.64860000874500867 0.69931902870633023 1.1034155802325345 
53 1 10.267604047603832 8.8655434950124192 4.1935616534328366 0.35489570281692151 -0.1633182924923417 -0.58118764315902616 
54 1 9.7673338504619629 10.065403968254852 5.065601996949856 0.14665558888664004 -0.11528604275115731 -0.20761864486796708 
55 2 4.2676916824188016 6.9918027563194913 7.6642530214365534 -0.28351597014166524 1.4665163817039277 1.2655777885600794 
56 1 4.0066315793503042 7.6371030105913409 6.9413027365845679 0.14933815139249754 -0.78511793658333751 0.094816955413187451 
57 1 4.1704616442609677 7.5601629802470676 8.4970733495695541 0.14492743964152888 -0.97060307281202007 -1.3857129986235739 
58 2 7.384252910935885 8.2698932600589661 7.1154528048340762 -0.5659058493864505 0.72355335367210249 1.0379964974269948 
59 1 6.6786026329116392 7.8822031073517751 7.6736230252125841 0.17900486880572269 -0.010644467945150619 -0.62833547799665501 
60 1 7.6158030024571683 9.0714235763888329 7.6889430313751195 0.074992310016568642 -0.51249999918692912 -0.41725475308998056 
61 2 0.14064105554078637 7.3286328889783841 0.20004107867201124 -0.93433891587271589 -0.28260675939833446 -1.4479708499120509 
62 1 0.79799431453361835 7.5729629852743354 0.80137031589660279 1.4984250373361254 0.83287851865109608 2.2549866172695343 
63 1 0.71618728211938143 7.1738628278972874 11.83790466656345 -0.35431107221538538 -0.33539907264736346 -0.88932457765629902 
64 2 5.781172279081904 2.1989308666875433 7.5243429665291517 -0.49185172834169216 0.074651505726095038 0.50588634515350461 
65 1 5.530992180604092 2.8259111139493283 6.818332688191532 0.23078967786317672 -0.065988880406383926 -0.055210969138526383 
66 1 5.2307520621275962 2.4647609715269554 8.3083432755076814 0.27614808121861401 -0.11467043995948019 -0.4499517530141523 
67 2 7.9667831405247176 10.450704120145732 8.7458134478522229 -0.72295882912881182 -1.2522233982218998 -0.21507562645136799 
68 1 7.1705128265980935 10.532404151870031 9.3210736747874723 0.49376836609362423 0.6891965263614972 -0.0610416158648917 
69 1 8.3342032856709487 11.314604460340043 8.5081733542929463 -0.31843088752154491 0.64743720355894008 0.18231963302720874 
70 2 12.081704762780227 9.4935637427091297 10.311904065234408 0.91173936411735557 0.25903817898354231 0.71486304649360355 
71 1 11.687104607203651 8.6900434258523447 10.706504220810984 0.37854328578832797 0.34974358312067355 -0.1287562468381229 
72 1 0.58955323243016799 9.6084237878937664 10.653504199664216 -1.0829993410110483 -0.4848658061141668 -0.39905993657658873 
73 2 1.22896048463854 4.0215515852234436 1.9215007576890526 -0.030672789012382962 -0.098620766311936475 0.20760340256035881 
74 1 2.1466208460532137 4.0991516159658454 1.6157406367005833 0.47359645107347587 0.37601147671248936 0.23921801315568372 
75 1 0.72963628753814169 4.4118217392945223 1.205210474930255 -0.50137234647996143 -0.10125585916679343 -0.1116697132741019 
76 2 8.0837731869461162 5.7001322472265539 12.174604799432565 -0.24814609504751658 -0.040975128004022282 -0.35736467419797019 
77 1 8.0245731636950008 4.8491519114583985 11.682504605727713 -0.053819516123259907 0.06202345606090811 0.31351289776821284 
78 1 8.9559335303912011 5.7188322542734165 0.1929180761552097 0.37936357588727232 -0.14319017994767447 -0.054278291006196543 
79 2 4.0697316042323859 1.7749406994918195 3.2816312937427803 0.31986591195079939 -0.92360995882933306 0.4775180568266168 
80 1 4.570011801765145 2.3304309188309724 2.6601210486260598 -0.0061310727289832275 -0.42369767700743111 0.20645246547161961 
81 1 4.6924518500790073 0.99099039088020047 3.606531421514354 -0.27409350336935517 1.2303233376370331 -0.97805955124228316 
82 2 9.2126736318159121 9.0510135681180319 11.055404358537862 0.86178698866420766 -0.67093913428150709 0.68441207472437893 
83 1 8.7888834650294765 9.8825238958456634 10.903604298719163 -0.37935066145643936 1.1017598060713376 -0.27489708896884685 
84 1 8.8671934954785616 8.4886833465290028 10.316104066950128 0.14209819902993426 0.38856610702890099 0.29446819747310604 
85 2 11.278304446380686 2.7753610938474949 0.25869310188120209 -0.58672151888193214 0.63203933895054187 -0.23235750415133163 
86 1 11.033304349824895 2.4666809724927163 11.790004647915836 0.14010781329513125 -0.32741824570477185 -0.242370860358706 
87 1 10.891704293946153 3.7006114587822809 0.25705710132729159 0.80335349830481007 -0.63684210623458248 0.39865547770018722 
88 2 8.2016032333931506 1.6324206436353956 1.5682106182280566 -1.5001211955592197 -0.5115341143903871 -0.095720415944488435 
89 1 7.2671828650916206 1.6865006646639324 1.2142504785072221 0.89020210186975768 0.27020758371782549 0.23974355479667667 
90 1 8.0839931870788249 0.85630033734166577 2.1817008599501357 0.50996769790842067 0.094823584259244753 -0.27928219752142824 
91 2 3.2482512806789106 7.9039831157273888 5.2566620721285968 0.75372261545975316 -1.0690731866144956 -0.43133806159034632 
92 1 3.9975815759116258 7.5729029855748911 4.623711822756885 -1.071543942188911 0.76499820157915155 0.81443704053052979 
93 1 3.1006312223233312 8.8394634847164433 5.0957520086425978 0.20890124547043518 0.59402758454280269 -0.33434933303075115 
94 2 5.8264322966661837 12.370104876712334 3.7802514904185096 0.68073839876467024 -2.1863659738671077 1.9586750375403543 
95 1 6.3821325157471573 11.835004665391386 3.1185912295491995 -0.68790026010123984 0.56542040083945622 1.3215899713980992 
96 1 5.8709323147060459 11.806404654489318 4.675951843300882 -0.051223925064695579 1.5388712182362219 -2.8367526111040853 
97 2 2.7629410893862012 9.6734638134650321 11.419404501765388 -0.049227800718219472 1.1406951259410403 -1.2093695195535923 
98 1 3.3024113016594918 9.762083848449608 10.590604175191421 -0.35240921674409892 0.11159660041496568 0.33804338838449338 
99 1 2.9721411719474977 8.7946534672592929 11.670604600954706 0.29658798556377142 -1.3234544014043033 0.68685095923361772 
100 2 6.6683126286287511 9.4454137238144984 4.6364818276698427 0.86156824601952586 0.13053486729286032 1.4099877030652748 
101 1 7.6595330195033711 9.4931337423054227 4.481741766703057 -1.0657938265250038 -0.15097451951744764 0.058222590106963928 
102 1 6.6512826223006289 9.2519636472902658 5.6279522187914841 0.134900857955497 0.074742274345998158 -1.3426459814783287 
103 2 8.6987034293925163 12.181204802355486 11.285004448979073 1.0903134544478319 0.15366216853687134 -0.49937810379482572 
104 1 9.6388137999718175 12.318904856603263 11.023804345729912 -0.45675437379696116 -0.26361060601100594 0.27109825467213466 
105 1 8.5805733828607273 0.40233315865377162 11.987004725619373 -0.24662626525240691 0.35270348957612951 0.42259209280900473 
106 2 11.870304679421016 1.2341904863982955 3.6429614363218414 0.69252209562744094 0.69859701618552084 -2.3932974011141628 
107 1 11.556004555878797 0.95618437700424097 4.4926917713840746 -0.64844786961628864 -0.98510307340216019 1.1358968272923686 
108 1 11.432504506877409 0.76519230162598373 2.8894911390728506 0.08103498724518908 0.37582837452372592 1.3333363309379906 
109 2 11.266304441403033 10.947804315615919 8.027933164855904 -1.3212592138305972 -0.69803593035857803 0.30813757671168324 
110 1 11.016704342842127 10.030703954394728 8.3552532940872783 0.36955978873861456 1.0729878694312862 -0.39435347654348779 
111 1 12.236004823481595 10.918604304544345 7.9084831175278616 0.46878585550534707 -0.24242787864134688 -0.088885486437603689 
112 2 8.9500535280950295 8.947213527151586 1.4728605805307846 -0.16118924336437032 0.15351973230327087 1.2190639846265783 
113 1 9.2149636329567599 8.9427735255797351 0.55692921938937212 0.16283473979174717 -0.10091570799599689 -1.5809918455760141 
114 1 9.6785038157355672 8.5127033556785516 1.9622507736111483 0.25890300320097143 -0.20501322545519288 0.35179037061228896 
115 2 0.56857922391536131 1.5072605943061563 6.2568824666041634 -0.55894845632353285 0.062664376028512603 -0.31304961094467038 
116 1 1.0299104061794673 1.5539806128673561 7.1144828044894854 0.28219553941572084 -0.22086775517325116 0.43994049306253691 
117 1 1.1401504496355674 2.0707608161198858 5.698682246640522 -0.13020220768131763 0.15586698037640567 0.00089002762587021833 
118 2 2.7192910717628642 7.7536630566090325 1.9447307666506983 -1.5545828955991907 0.30757472649093986 0.33049599819483394 
119 1 3.5235413891081087 7.5070929595391434 1.4881705868316089 0.49330150523797472 0.47835012445345371 -0.036360620250387207 
120 1 2.6735510539371448 8.7295134414833839 2.1160908343236748 0.84223341716696887 -0.99346116246916549 -0.42140297301214125 
121 2 8.2317232449715814 1.406090554541334 5.5510521884232311 0.97931568191862417 -0.46197700509904915 -0.3831391898811195 
122 1 7.5676329833099363 1.3258305224829998 6.2328124570877028 -0.56545462677120562 0.19426117155759848 0.52471656680682011 
123 1 8.0531231747593335 2.1819308599445559 5.0072219740009558 -0.12920880312265695 0.31704051164687092 -0.23456537340113906 
124 2 3.7983714975484659 6.0778623958499187 11.343904472145436 0.53829131587353651 0.10805862369601829 0.10652665274121748 
125 1 4.5056017764776959 6.7885926761207207 11.247704434031638 -0.55502379204501862 -0.49573230403819557 0.12333566533221002 
126 1 2.9819411755980587 6.4187025302061329 10.911804301741313 0.01043121963115389 -0.26608425977386152 0.058411457175155626 
127 2 11.134204389619276 4.5683618007698268 3.6025214203462097 0.38414797167047809 -0.00035303659978905277 0.018963401976572054 
128 1 11.820004659566203 5.2815420820855623 3.7030314597129048 -0.10715124993355506 -0.66900131722204892 0.20771378630978782 
129 1 11.62520458318976 3.7131714639534175 3.5458113975868737 -0.22995593989322313 0.59771152605747369 -0.086608920414392943 
130 2 11.217304422091877 8.2054132346811848 2.9292411545360437 0.83506822702939942 0.75330887318015427 -0.65498402473263939 
131 1 11.963204716073355 8.8596634927162476 2.5992510246562035 -1.0441353477451314 -1.0476496976086411 0.92073017291986892 
132 1 11.648604591917206 7.4352029313271153 3.3689113282076777 0.32738657468982285 0.61527876533812931 -0.3326436283275751 
133 2 8.4934333480473185 0.82399932507299523 8.4979333498477914 -0.15132444164355308 0.27368722393771117 1.3212601294008068 
134 1 7.7515330559014499 1.4236505614778057 8.6362434046559606 -0.61492488348991448 0.4489375771328003 -1.0058793787016411 
135 1 8.6512534103428553 0.77390030524321551 9.4716737337379833 0.59674252047704035 -0.71810164246398533 -0.26643665237704567 
136 2 0.72941528778968545 7.2927228749175361 7.4705629450561899 -0.61517528951320144 0.25715582910753088 -1.6100227351585761 
137 1 12.236804824060387 7.3941229146767791 7.0126527643265346 1.5746897919640361 -0.10287415437561526 1.0525143871678455 
138 1 1.4104505561611411 7.5248429664940142 6.7899226767786871 -0.75734985821959233 -0.19758301030229974 0.68684638221450034 
139 2 5.6965422455420516 11.070204363953758 10.706404220606341 -0.14598933320925295 -0.084807101341797531 0.2756566451782666 
140 1 5.5877822027862942 11.666004598949588 11.482604526852114 0.13694972953854684 -0.72683172063502721 -0.424266459128679 
141 1 5.4388021441876155 10.163204006467883 10.998304335880018 0.23633461818633542 0.6688653202308279 -0.11805395832168521 
142 2 7.8937031118353884 7.313082882821428 9.7889938589095102 -0.85384242261973853 -1.0658950851017557 -2.5428765400194111 
143 1 8.030273165834485 6.7224926503911089 10.536504153910284 0.041899881218912818 -0.7677318330743812 0.862796790436133 
144 1 7.6787630271585838 6.7054126431668992 8.9883335432487677 0.40582775663914972 0.88375870689534997 1.8286036081130901 
145 2 8.1703932210128851 11.474104523216033 2.8631611285298542 1.4260315083215733 -1.6426176357773503 -0.31667020322440698 
146 1 8.6619034149391183 11.519004541016113 3.7052114607873969 -0.29163829412836573 0.46875661620122444 0.039684874833044018 
147 1 8.5780133817494377 10.598804178213573 2.5019509864080365 -0.99036699493006886 1.3347571831622511 0.026908523996490963 
148 2 1.5121405961434258 10.973804325959851 7.7483730546206555 -0.015150582935334334 -1.728370091285665 -1.2825801920878801 
149 1 1.730050682082626 10.943304314344623 6.763672666187734 0.15608426528241504 0.17056661199235032 0.900809466998025 
150 1 1.7669206966263544 11.80740465494822 8.1137331986204586 0.22145104320708883 1.6821563362756706 0.31881937785303893 
151 2 10.77580424832659 2.7222510731635499 7.6400330118777164 0.075504144632490985 -0.68729266895959717 -1.2245199460081535 
152 1 11.582804566272344 2.3631709317493139 7.1720428271361696 -0.31745285752160129 0.20421672163816684 0.10681460101231477 
153 1 10.089403977680981 2.4292809578698145 6.9902727557814153 0.22711377351440398 0.306255777527352 0.92879735311292144 
154 2 2.0730108172847106 1.6255006409042994 0.000299719091655248 0.009953028340653175 0.70888725116627838 0.25798309193898095 
155 1 2.3159209131089411 2.4729909746634182 0.41754716480047227 0.053296151103174316 -0.43779743350488703 -0.06391793056509748 
156 1 1.1088204373272357 1.6985306697558959 0.056515422074285927 -0.48079876088234297 -0.1773568229345413 -0.057523432701644742 
157 2 10.840804273921833 5.4301421406474439 0.71507328207278165 0.61575634601188922 0.74538828262445755 0.39714617294312732 
158 1 11.010904340498 5.3565521116023644 1.6739606597453953 -0.65841115135437922 -0.6006400585500079 0.33166503083660337 
159 1 11.518004540557213 6.1664724309727816 0.5653902226651798 -0.41729498435989631 -0.27537145199210594 -0.66587000341532854 
160 2 2.4031209476217938 3.182021254630345 4.9864719656693781 -0.48669309201937716 -0.16624996642436357 -1.6330597440133752 
161 1 1.8977307482573451 3.4126213455304586 4.1355116301538226 0.82759914355160902 -0.21174800076402514 1.3273462898649606 
162 1 3.0670212092650408 2.5037509869165544 4.6764418434040333 -0.24767001164947933 0.62455039498066545 -0.20822197375096951 
163 2 0.75826529893877193 6.6238626114849755 3.8923715343351719 -0.6710173396582394 -0.23604103664731321 1.6133796145838997 
164 1 1.2483704919212633 6.6832026349167561 3.0827912155547059 1.1246059409656919 0.1309639874788954 -0.80095516073015616 
165 1 1.3320605252308348 6.9164727264653365 4.6485718324612497 -0.027479254344339121 -0.19655188313119551 -0.9506509694539067 
166 2 5.5806421999224893 7.1014027996300628 3.9435015548830892 0.26991733012963437 -0.54114932954878592 0.51726627274357662 
167 1 5.9262723363022172 6.6629526265500409 3.1271612327464373 -0.49494672853441074 0.33675536104203063 -0.15000772189473985 
168 1 6.2032224455884455 7.8297230864224696 4.1982316549991072 -0.30505470955664915 0.19969166729033624 -0.30295657349685162 
169 2 4.120171624267865 10.237404036073357 2.4244409560085671 -0.77636555379417205 -0.60095727675418298 1.7604030106831747 
170 1 3.680221450764078 10.987904331530775 2.0140607937514381 0.22264798159527557 0.80311106975041502 -1.5148407356367717 
171 1 3.7330914715918917 10.372104088944427 3.3200413086862963 0.86826570209322917 -0.57918795836653658 0.04432581004002057 
172 2 1.9523707694793666 12.386204882671885 3.1990812610727763 -0.79030182095666457 0.55973833055578437 -0.34143564987042352 
173 1 2.6801710565834878 0.58561123106250834 2.9333811565523189 -0.075616546027697767 -0.12852603370852267 0.11205937297174265 
174 1 1.121160441836486 0.53471921061005123 3.1264312322579766 0.59393751757474211 -0.54037500898246316 0.5755712864873177 
175 2 6.6901426373712747 5.3322221019771732 8.3199832801719591 0.85146557660017763 -0.28529501526343531 -0.71757336130903238 
176 1 5.8127622914989674 5.6848022412023083 8.1110631974428156 -0.12914132748625914 0.11102325902969597 -0.42003476812608098 
177 1 7.1391728144280506 5.0769620012528032 7.4620929415344177 -0.85649760921496265 0.20749060575342657 0.82483181184237941 
178 2 6.2475624631950435 8.5654333768548785 1.2902905085972374 1.3630831705850055 -0.90645236418033259 -0.75461801850853538 
179 1 5.8718823147980386 9.1341436007049417 1.9729407776542569 0.029934303594714828 0.31751903883238314 0.42795528306993402 
180 1 7.2635228633167861 8.5176433577444453 1.3992405513713932 -1.7066953010816508 0.56296630467549547 0.15783394016340835 
181 2 4.0812816090829092 3.1650912479776898 9.5824037778264124 0.13373007684623225 -0.22913531143168819 0.60153390250284378 
182 1 4.16980164386284 3.4074913434461696 10.533204152448825 -0.22998337111942618 0.011346726651045688 -0.78983992342285936 
183 1 3.6320614320077342 3.8943415351386661 9.1173235941186395 -0.0426230297565958 0.18325770120586568 -0.0076408918081010543 
184 2 6.2433024612507015 5.5372921829130819 1.8283107208136733 0.64253297389191755 -0.94311740015812873 1.3201625700083277 
185 1 6.8959927186333783 5.9261023360072409 1.2104304773574766 -0.18343428871488865 -0.23582071059717 -0.11489348679880051 
186 1 6.7820226738412872 5.0069119740544918 2.4937309831332848 -0.39943094594781031 0.62343284293382872 -1.1070703093765857 
187 2 1.2359304872073695 6.6533726230321895 10.195404019445339 -0.72410869841890591 -1.5615951297997173 4.5238238834834208 
188 1 0.82126032394994319 5.782382279811805 10.038903957416879 0.12663163176063164 -0.2155672609674118 -0.32379883944086751 
189 1 1.4575805748734485 7.0325527722415861 9.4123637104205145 0.52065187780500999 1.7973154846450383 -4.1347112008487388 
190 2 1.7294806820274307 1.2765105033636661 8.6733834191701309 -0.43333125513569859 -0.66877518702740868 -0.35161872043698578 
191 1 0.87497734475951017 1.4490105711470334 9.1501236072656038 1.1126944224725375 0.36183855537840126 0.3030313836673833 
192 1 2.5056009877919831 1.7664406963849144 8.9791935399963361 -0.44157183739371564 0.34967540651001117 0.67436031217207215 
193 2 15.387590449370975 11.021604344931998 5.3254020994507201 -0.18851284229801288 -1.2676154297282078 0.38454238160413856 
194 1 14.900790257516212 11.645604591069674 4.7741418819415973 -0.16588184840140308 0.79937902338798206 -0.72227693498359913 
195 1 16.151560750644677 11.412304498877607 5.8007522866596037 0.026867026373284815 0.28928585256426292 -0.21161829161290496 
196 2 23.710703730709419 11.194004413039899 0.086768434406444148 0.24385439542094361 -0.52326564158566935 -0.62094388901020259 
197 1 22.823703380814059 10.926604307686388 0.34829313707207921 -0.18833589919351307 0.081357446110501649 0.13108606481452628 
198 1 23.866203791749797 10.599104178298328 11.709404616325905 0.040707753947322844 0.29595789367529274 0.34579506929675707 
199 2 22.622603301599447 7.995033152033475 7.5217829654178621 -1.9529591675461084 0.10243373635275747 -1.8710282967325877 
200 1 22.196473133834431 7.3029528789718032 8.0675031801624097 0.17212279713187173 0.50236006328798255 -0.11437467273884766 
201 1 21.88206300969668 8.1872532275752068 6.7791426723926458 2.0131704607051626 -0.52571825493456392 1.8714566028141206 
202 2 18.214181563971032 4.2497216753312221 5.1475620293120645 -0.024833542125281556 2.0720127144664051 -0.13506085102433427 
203 1 18.178301549495316 5.2613620743383569 4.9832719644125616 -0.32626001330409415 -1.3950719463701484 0.38645535183267965 
204 1 18.829391806249582 4.0216515854280868 4.4326917475541663 0.32091623999603136 -0.53092432816206847 -0.15143251735899876 
205 2 16.218840776989879 4.3111216993802515 1.0677604209294989 1.6941126220776135 0.48923057798475755 -0.00128087548625129 
206 1 16.987681080239135 4.6181918207740882 1.6758806607111565 -1.1327960724542774 -0.14017552241094727 -1.1898802167798341 
207 1 16.293000806619332 4.9442919494138504 0.26631810518189203 -0.087285757485077553 -0.14489993148627903 0.51530062500591589 
208 2 16.329500820987974 9.8946939005891146 8.7282534409157506 -1.0235357321744905 1.150670790291449 -0.48333464037479723 
209 1 16.762830991845419 10.74490423589279 8.4890633465657999 0.25065651846836279 -0.72420903245722823 0.45546998517989595 
210 1 15.400400454259955 10.195004019155942 8.4850533448684793 0.49104413401959551 -0.8780121352329352 0.082116418630161475 
211 2 20.756422565783147 3.7590814820741132 3.4283113513389023 0.39308214350934062 -1.1569620533901077 -1.0235356030559677 
212 1 21.623892907938536 4.0763416070170182 3.8229515068914997 -0.52025910253260843 -0.54102302399447255 -1.0238359303372224 
213 1 20.92562263263423 3.0391911982982793 2.6565710474467563 -0.12639463702870307 1.6259774056831622 1.9338547634182295 
214 2 13.134544561345139 3.902101538424577 9.6309337967578426 -0.79338962098449306 0.18848053515279234 2.5165293913557152 
215 1 13.703379785318713 3.9857315715055273 8.906383511277447 2.6303297870182627 0.49702026487788958 -2.3186813830585313 
216 1 24.780204152447993 3.6633914443160664 9.142853604082843 -1.919448640362841 -0.40270726406763563 -0.31180586586951548 
217 2 14.940170273333496 4.4280017457352949 7.4511729374968896 0.97811231429689194 1.8433858037843471 0.32867058406906507 
218 1 15.316530421322874 5.3669221158372968 7.400512917328701 -0.63891792816552062 -1.4600615471455627 0.10956628259921292 
219 1 15.143130353285246 4.0410415929873871 6.5771325930620641 -0.17658395167055913 -0.15014429249184155 -0.21618256970222605 
220 2 22.819903379387739 11.807704655032975 5.5567121905866941 0.24518578059241217 -0.59464874313013505 -0.88028674125463391 
221 1 22.033353069159631 12.352204869715088 5.6265222179288745 -0.63056179319439176 0.70025665803958981 0.24513880426187759 
222 1 22.974503440173855 11.446104512483473 6.4520525436848697 0.43536494579824314 -0.028130510453640081 0.7865173154477012 
223 2 16.061640715116447 11.934904705256042 0.44243817423489507 -0.7763375927299393 1.061266640418469 0.18405919735148588 
224 1 15.692660569847007 11.210204419204091 12.304504850947586 -0.0086364107653831845 0.12039184433168937 0.081450451043698191 
225 1 15.347370433528052 0.24166009511830802 0.49262919416827827 0.65681916327492551 -0.96069759939702859 -0.37873615972848529 
226 2 17.9207714478827 8.183633226305572 11.082804369100916 -0.39348897692214913 0.051963351672877606 -1.371288646245453 
227 1 18.674801745325176 7.923083123592825 10.496004137706032 0.043004798157532109 0.1144499787923101 0.40849025091243824 
228 1 18.276971588377471 8.4768733415697497 11.92740470207886 0.48526050843792456 -0.067803689829854075 1.2885245504958733 
229 2 19.607922113083049 3.1664412483590785 10.594704176702498 -0.72741794226180434 0.14743510448593825 -0.14616383107592651 
230 1 18.968351861064995 3.464581365713125 9.9003339030291553 0.68424104452977819 -0.041251916860495882 0.4252485401088088 
231 1 19.033021886461174 2.8479011225959403 11.337604469307268 0.10172721701245739 -0.13896832330431624 -0.43100636970654144 
232 2 17.688771356763464 1.9218107576355168 12.396404887141021 0.51218713430905904 2.7639736202985277 0.78943490346925782 
233 1 17.108181127863816 1.1863804675644385 12.334604862802594 -1.1124302717752332 -1.5588307087556041 -0.024588071405834522 
234 1 17.1087411280573 2.6821710575012929 0.35009513787044594 0.81544877624167045 -0.88389271588715579 -0.4250847565429382 
235 2 17.464831268485717 11.869504679371399 6.7558526632023783 0.18841924439692218 0.45538909148040185 0.40396534265631923 
236 1 18.141171534842854 11.224804425269056 7.0185827669896161 0.32209202405103465 0.10412905043339606 -0.058998077665380622 
237 1 17.683891354926196 0.31234412318013349 7.2043328399273818 0.067624802711290927 -0.21089212083698405 -0.42402338464302586 
238 2 12.966460494830503 10.061203966539134 2.1976808665107979 0.16353668734550497 0.35529781657405834 -0.53503639751604803 
239 1 13.433019679093693 10.777204248545713 2.7246210742564401 -0.52993668506038205 -0.25527094539868278 -0.93723941213671347 
240 1 12.54678332932245 10.412804105028789 1.352370533296994 0.48634490895838456 0.058652234011126965 1.1964287261324038 
241 2 23.807403768788078 1.0552104161492506 9.8494538827282572 -1.1219173783799679 1.7460213514715515 -0.82926067950957738 
242 1 23.990403841125335 0.20124107954020051 9.4812837378993233 0.053699051226822309 -1.3820246444832338 -0.48861292351810903 
243 1 23.291203565452456 1.5012705919436298 9.0729135769508886 0.77460561347719503 -0.39280831223706641 1.0215752838100081 
244 2 21.8888130121328 9.2332736401051143 4.6154218193918002 -0.64860000874501289 0.69931902870632701 1.1034155802325321 
245 1 22.684703326022628 8.8655434950124192 4.1935616534328366 0.35489570281692639 -0.16331829249234212 -0.58118764315903026 
246 1 22.184433128880759 10.065403968254852 5.065601996949856 0.14665558888664348 -0.11528604275115369 -0.20761864486796722 
247 2 16.684790960837596 6.9918027563194913 7.6642530214365534 -0.28351597014165664 1.4665163817039142 1.2655777885600858 
248 1 16.423730857769101 7.6371030105913409 6.9413027365845679 0.14933815139248971 -0.78511793658333251 0.094816955413179999 
249 1 16.587560922679764 7.5601629802470676 8.4970733495695541 0.14492743964152452 -0.97060307281201708 -1.3857129986235746 
250 2 19.801352189354681 8.2698932600589661 7.1154528048340762 -0.56590584938640354 0.7235533536721267 1.0379964974269604 
251 1 19.095701911330437 7.8822031073517751 7.6736230252125841 0.17900486880568059 -0.010644467945170365 -0.62833547799661982 
252 1 20.032902280875966 9.0714235763888329 7.6889430313751195 0.074992310016562022 -0.51249999918692835 -0.41725475308997967 
253 2 12.557740333959583 7.3286328889783841 0.20004107867201124 -0.93433891587276241 -0.28260675939835511 -1.447970849912094 
254 1 13.215093592952414 7.5729629852743354 0.80137031589660279 1.4984250373361714 0.8328785186511144 2.2549866172695712 
255 1 13.133286560538178 7.1738628278972874 11.83790466656345 -0.35431107221538555 -0.33539907264736291 -0.88932457765629414 
256 2 18.1982715575007 2.1989308666875433 7.5243429665291517 -0.49185172834169183 0.074651505726095996 0.50588634515350295 
257 1 17.948091459022887 2.8259111139493283 6.818332688191532 0.23078967786317897 -0.065988880406384995 -0.055210969138525315 
258 1 17.647851340546392 2.4647609715269554 8.3083432755076814 0.27614808121861273 -0.11467043995947887 -0.44995175301414919 
259 2 20.383882418943514 10.450704120145732 8.7458134478522229 -0.7229588291289013 -1.2522233982218991 -0.21507562645130593 
260 1 19.587612105016888 10.532404151870031 9.3210736747874723 0.4937683660937095 0.68919652636148709 -0.061041615864948856 
261 1 20.751302564089745 11.314604460340043 8.5081733542929463 -0.31843088752153759 0.64743720355894763 0.18231963302720322 
262 2 24.498804041199023 9.4935637427091297 10.311904065234408 0.91173936411741563 0.25903817898354675 0.71486304649362997 
263 1 24.104203885622447 8.6900434258523447 10.706504220810984 0.37854328578832663 0.34974358312067466 -0.12875624683812417 
264 1 13.006652510848964 9.6084237878937664 10.653504199664216 -1.0829993410109979 -0.48486580611415958 -0.39905993657656974 
265 2 13.646059763057336 4.0215515852234436 1.9215007576890526 -0.030672789012376914 -0.098620766311932048 0.20760340256035392 
266 1 14.56372012447201 4.0991516159658454 1.6157406367005833 0.47359645107347376 0.37601147671248714 0.23921801315568328 
267 1 13.146735565956938 4.4118217392945223 1.205210474930255 -0.5013723464799632 -0.10125585916679292 -0.11166971327410143 
268 2 20.500872465364914 5.7001322472265539 12.174604799432565 -0.24814609504765719 -0.040975128004027001 -0.35736467419803314 
269 1 20.441672442113799 4.8491519114583985 11.682504605727713 -0.053819516123262044 0.062023456060908658 0.31351289776821339 
270 1 21.373032808809995 5.7188322542734165 0.1929180761552097 0.3793635758874086 -0.14319017994766828 -0.054278291006128229 
271 2 16.486830882651184 1.7749406994918195 3.2816312937427803 0.31986591195071445 -0.92360995882934904 0.47751805682665743 
272 1 16.98711108018394 2.3304309188309724 2.6601210486260598 -0.0061310727289401769 -0.42369767700739835 0.20645246547157695 
273 1 17.109551128497802 0.99099039088020047 3.606531421514354 -0.27409350336932126 1.2303233376370168 -0.97805955124228161 
274 2 21.629772910234706 9.0510135681180319 11.055404358537862 0.86178698866425674 -0.67093913428160068 0.68441207472440757 
275 1 21.205982743448274 9.8825238958456634 10.903604298719163 -0.3793506614564866 1.101759806071428 -0.27489708896886805 
276 1 21.284292773897356 8.4886833465290028 10.316104066950128 0.14209819902993187 0.38856610702890265 0.29446819747310149 
277 2 23.695403724799483 2.7753610938474949 0.25869310188120209 -0.58672151888194091 0.63203933895053244 -0.23235750415135945 
278 1 23.450403628243691 2.4666809724927163 11.790004647915836 0.14010781329513936 -0.32741824570476463 -0.24237086035867897 
279 1 23.308803572364951 3.7006114587822809 0.25705710132729159 0.80335349830481051 -0.63684210623457638 0.39865547770018894 
280 2 20.618702511811946 1.6324206436353956 1.5682106182280566 -1.500121195559255 -0.51153411439038421 -0.095720415944499926 
281 1 19.684282143510416 1.6865006646639324 1.2142504785072221 0.89020210186979543 0.27020758371782327 0.23974355479668841 
282 1 20.501092465497621 0.85630033734166577 2.1817008599501357 0.50996769790842134 0.0948235842592422 -0.2792821975214268 
283 2 15.665350559097707 7.9039831157273888 5.2566620721285968 0.75372261545971264 -1.0690731866144647 -0.43133806159032018 
284 1 16.41468085433042 7.5729029855748911 4.623711822756885 -1.0715439421888746 0.76499820157913889 0.81443704053050303 
285 1 15.517730500742127 8.8394634847164433 5.0957520086425978 0.20890124547043704 0.59402758454278581 -0.33434933303074815 
286 2 18.24353157508498 12.370104876712334 3.7802514904185096 0.68073839876468667 -2.1863659738671273 1.958675037540339 
287 1 18.799231794165955 11.835004665391386 3.1185912295491995 -0.68790026010125394 0.5654204008394691 1.3215899713981203 
288 1 18.288031593124842 11.806404654489318 4.675951843300882 -0.051223925064691991 1.5388712182362223 -2.8367526111040879 
289 2 15.180040367804997 9.6734638134650321 11.419404501765388 -0.049227800718218223 1.1406951259410416 -1.2093695195535963 
290 1 15.719510580078287 9.762083848449608 10.590604175191421 -0.35240921674409853 0.11159660041496791 0.33804338838449294 
291 1 15.389240450366295 8.7946534672592929 11.670604600954706 0.2965879855637692 -1.3234544014043021 0.68685095923361938 
292 2 19.085411907047547 9.4454137238144984 4.6364818276698427 0.86156824601951787 0.13053486729286715 1.4099877030652732 
293 1 20.076632297922167 9.4931337423054227 4.481741766703057 -1.0657938265250015 -0.15097451951744761 0.058222590106970173 
294 1 19.068381900719423 9.2519636472902658 5.6279522187914841 0.13490085795550746 0.074742274346001114 -1.3426459814783329 
295 2 21.115802707811312 12.181204802355486 11.285004448979073 1.0903134544478326 0.15366216853687592 -0.49937810379482506 
296 1 22.055913078390613 12.318904856603263 11.023804345729912 -0.45675437379696365 -0.26361060601100333 0.27109825467213278 
297 1 20.997672661279523 0.40233315865377162 11.987004725619373 -0.24662626525240777 0.35270348957612951 0.42259209280900573 
298 2 24.287403957839814 1.2341904863982955 3.6429614363218414 0.69252209562738543 0.69859701618547354 -2.3932974011141757 
299 1 23.973103834297593 0.95618437700424097 4.4926917713840746 -0.64844786961627521 -0.98510307340214287 1.1358968272923415 
300 1 23.849603785296203 0.76519230162598373 2.8894911390728506 0.081034987245228229 0.37582837452375845 1.3333363309380315 
301 2 23.683403719821829 10.947804315615919 8.027933164855904 -1.3212592138306769 -0.69803593035857003 0.3081375767116914 
302 1 23.433803621260921 10.030703954394728 8.3552532940872783 0.36955978873862599 1.0729878694312887 -0.39435347654348724 
303 1 24.653104101900389 10.918604304544345 7.9084831175278616 0.46878585550541646 -0.24242787864135582 -0.088885486437612196 
304 2 21.367152806513825 8.947213527151586 1.4728605805307846 -0.16118924336436463 0.15351973230326907 1.2190639846265778 
305 1 21.632062911375556 8.9427735255797351 0.55692921938937212 0.16283473979174451 -0.10091570799599667 -1.5809918455760172 
306 1 22.095603094154363 8.5127033556785516 1.9622507736111483 0.2589030032009727 -0.20501322545519071 0.35179037061229046 
307 2 12.985678502334157 1.5072605943061563 6.2568824666041634 -0.5589484563234931 0.062664376028540469 -0.31304961094468042 
308 1 13.447009684598264 1.5539806128673561 7.1144828044894854 0.2821955394157114 -0.22086775517325427 0.43994049306252997 
309 1 13.557249728054364 2.0707608161198858 5.698682246640522 -0.13020220768134536 0.15586698037638475 0.0008900276258843598 
310 2 15.13639035018166 7.7536630566090325 1.9447307666506983 -1.5545828955991774 0.30757472649093309 0.33049599819482811 
311 1 15.940640667526905 7.5070929595391434 1.4881705868316089 0.49330150523795785 0.4783501244534617 -0.036360620250378416 
312 1 15.09065033235594 8.7295134414833839 2.1160908343236748 0.8422334171669692 -0.99346116246916727 -0.42140297301214336 
313 2 20.648822523390379 1.406090554541334 5.5510521884232311 0.97931568191851071 -0.4619770050990577 -0.38313918988100498 
314 1 19.98473226172873 1.3258305224829998 6.2328124570877028 -0.5654546267710947 0.19426117155760689 0.52471656680670908 
315 1 20.470222453178131 2.1819308599445559 5.0072219740009558 -0.12920880312265032 0.31704051164687125 -0.23456537340114508 
316 2 16.215470775967262 6.0778623958499187 11.343904472145436 0.5382913158735636 0.10805862369602628 0.10652665274122247 
317 1 16.922701054896493 6.7885926761207207 11.247704434031638 -0.55502379204503371 -0.49573230403820845 0.12333566533221073 
318 1 15.399040454016856 6.4187025302061329 10.911804301741313 0.010431219631141825 -0.26608425977385625 0.058411457175150241 
319 2 23.551303668038074 4.5683618007698268 3.6025214203462097 0.38414797167039 -0.0003530365998212423 0.018963401976565018 
320 1 24.237103937984998 5.2815420820855623 3.7030314597129048 -0.10715124993349352 -0.66900131722199796 0.20771378630979445 
321 1 24.042303861608556 3.7131714639534175 3.5458113975868737 -0.22995593989320193 0.59771152605745292 -0.08660892041439297 
322 2 23.634403700510674 8.2054132346811848 2.9292411545360437 0.83506822702936601 0.7533088731801928 -0.65498402473266304 
323 1 24.380303994492152 8.8596634927162476 2.5992510246562035 -1.0441353477451323 -1.0476496976086416 0.92073017291987302 
324 1 24.065703870336002 7.4352029313271153 3.3689113282076777 0.32738657468984345 0.61527876533809822 -0.33264362832755878 
325 2 20.910532626466114 0.82399932507299523 8.4979333498477914 -0.15132444164353318 0.27368722393769335 1.3212601294008111 
326 1 20.168632334320247 1.4236505614778057 8.6362434046559606 -0.6149248834899439 0.44893757713282345 -1.0058793787016473 
327 1 21.068352688761649 0.77390030524321551 9.4716737337379833 0.59674252047705123 -0.71810164246399566 -0.26643665237704167 
328 2 13.146514566208481 7.2927228749175361 7.4705629450561899 -0.61517528951314571 0.25715582910752616 -1.6100227351585632 
329 1 24.653904102479181 7.3941229146767791 7.0126527643265346 1.5746897919640912 -0.10287415437561902 1.0525143871678653 
330 1 13.827549834579937 7.5248429664940142 6.7899226767786871 -0.75734985821958167 -0.19758301030229999 0.68684638221450667 
331 2 18.113641523960847 11.070204363953758 10.706404220606341 -0.14598933320925714 -0.084807101341789093 0.27565664517828126 
332 1 18.004881481205089 11.666004598949588 11.482604526852114 0.13694972953855125 -0.72683172063503687 -0.42426645912869509 
333 1 17.855901422606411 10.163204006467883 10.998304335880018 0.23633461818633608 0.66886532023082745 -0.11805395832168616 
334 2 20.310802390254185 7.313082882821428 9.7889938589095102 -0.85384242261974252 -1.0658950851017692 -2.5428765400194004 
335 1 20.447372444253283 6.7224926503911089 10.536504153910284 0.041899881218911028 -0.76773183307437287 0.86279679043612256 
336 1 20.095862305577381 6.7054126431668992 8.9883335432487677 0.40582775663914827 0.88375870689534941 1.8286036081130936 
337 2 20.587492499431683 11.474104523216033 2.8631611285298542 1.4260315083215134 -1.6426176357773226 -0.31667020322444051 
338 1 21.079002693357914 11.519004541016113 3.7052114607873969 -0.29163829412833614 0.46875661620122294 0.039684874833082688 
339 1 20.995112660168232 10.598804178213573 2.5019509864080365 -0.99036699493004565 1.3347571831622278 0.02690852399648682 
340 2 13.929239874562221 10.973804325959851 7.7483730546206555 -0.015150582935350636 -1.7283700912856588 -1.2825801920878828 
341 1 14.147149960501421 10.943304314344623 6.763672666187734 0.15608426528241356 0.17056661199234868 0.90080946699802544 
342 1 14.18401997504515 11.80740465494822 8.1137331986204586 0.22145104320709122 1.6821563362756704 0.31881937785304015 
343 2 23.192903526745386 2.7222510731635499 7.6400330118777164 0.075504144632494566 -0.68729266895959673 -1.2245199460081544 
344 1 23.99990384469114 2.3631709317493139 7.1720428271361696 -0.31745285752160396 0.20421672163816684 0.10681460101231474 
345 1 22.506503256099776 2.4292809578698145 6.9902727557814153 0.22711377351440459 0.306255777527353 0.92879735311292067 
346 2 14.490110095703507 1.6255006409042994 0.000299719091655248 0.0099530283405969699 0.7088872511662776 0.25798309193898172 
347 1 14.733020191527737 2.4729909746634182 0.41754716480047227 0.053296151103173893 -0.43779743350488454 -0.063917930565098202 
348 1 13.525919715746031 1.6985306697558959 0.056515422074285927 -0.4807987608822909 -0.17735682293454402 -0.05752343270164581 
349 2 23.257903552340629 5.4301421406474439 0.71507328207278165 0.61575634601191309 0.74538828262447121 0.39714617294312354 
350 1 23.428003618916797 5.3565521116023644 1.6739606597453953 -0.658411151354383 -0.6006400585500109 0.33166503083660603 
351 1 23.93510381897601 6.1664724309727816 0.5653902226651798 -0.41729498435991574 -0.27537145199212121 -0.66587000341532943 
352 2 14.82022022604059 3.182021254630345 4.9864719656693781 -0.4866930920193816 -0.16624996642436329 -1.6330597440133714 
353 1 14.314830026676141 3.4126213455304586 4.1355116301538226 0.82759914355161057 -0.21174800076402622 1.3273462898649593 
354 1 15.484120487683837 2.5037509869165544 4.6764418434040333 -0.24767001164947738 0.62455039498066411 -0.20822197375097204 
355 2 13.175364577357568 6.6238626114849755 3.8923715343351719 -0.67101733965822941 -0.23604103664731316 1.6133796145838799 
356 1 13.66546977034006 6.6832026349167561 3.0827912155547059 1.1246059409656797 0.13096398747889601 -0.80095516073014084 
357 1 13.749159803649631 6.9164727264653365 4.6485718324612497 -0.027479254344340509 -0.19655188313119629 -0.95065096945390581 
358 2 17.997741478341286 7.1014027996300628 3.9435015548830892 0.26991733012962965 -0.54114932954881922 0.51726627274354653 
359 1 18.343371614721015 6.6629526265500409 3.1271612327464373 -0.49494672853442429 0.33675536104203885 -0.15000772189471959 
360 1 18.620321724007241 7.8297230864224696 4.1982316549991072 -0.30505470955663078 0.19969166729035587 -0.30295657349684413 
361 2 16.537270902686661 10.237404036073357 2.4244409560085671 -0.77636555379415195 -0.60095727675422594 1.7604030106832032 
362 1 16.097320729182876 10.987904331530775 2.0140607937514381 0.22264798159525312 0.80311106975045687 -1.514840735636791 
363 1 16.150190750010687 10.372104088944427 3.3200413086862963 0.86826570209323339 -0.57918795836653769 0.044325810040010016 
364 2 14.369470047898162 12.386204882671885 3.1990812610727763 -0.79030182095664281 0.55973833055580391 -0.34143564987042474 
365 1 15.097270335002284 0.58561123106250834 2.9333811565523189 -0.075616546027728604 -0.12852603370854143 0.11205937297175034 
366 1 13.538259720255281 0.53471921061005123 3.1264312322579766 0.593937517574747 -0.5403750089824606 0.57557128648731681 
367 2 19.10724191579007 5.3322221019771732 8.3199832801719591 0.85146557660018696 -0.28529501526343515 -0.71757336130903859 
368 1 18.229861569917762 5.6848022412023083 8.1110631974428156 -0.12914132748625426 0.11102325902969348 -0.42003476812608376 
369 1 19.556272092846847 5.0769620012528032 7.4620929415344177 -0.85649760921497431 0.20749060575343081 0.8248318118423893 
370 2 18.664661741613841 8.5654333768548785 1.2902905085972374 1.363083170584962 -0.90645236418031105 -0.75461801850851662 
371 1 18.288981593216835 9.1341436007049417 1.9729407776542569 0.029934303594731523 0.31751903883236221 0.42795528306991004 
372 1 19.680622141735583 8.5176433577444453 1.3992405513713932 -1.7066953010816281 0.56296630467549469 0.15783394016341207 
373 2 16.498380887501703 3.1650912479776898 9.5824037778264124 0.13373007684626873 -0.22913531143173937 0.60153390250287297 
374 1 16.586900922281636 3.4074913434461696 10.533204152448825 -0.22998337111942779 0.011346726651045209 -0.78983992342285991 
375 1 16.049160710426531 3.8943415351386661 9.1173235941186395 -0.042623029756626414 0.18325770120591423 -0.0076408918081294691 
376 2 18.660401739669496 5.5372921829130819 1.8283107208136733 0.64253297389200703 -0.94311740015810741 1.3201625700082846 
377 1 19.313091997052176 5.9261023360072409 1.2104304773574766 -0.1834342887149486 -0.23582071059720083 -0.11489348679875422 
378 1 19.199121952260082 5.0069119740544918 2.4937309831332848 -0.39943094594782869 0.62343284293383983 -1.1070703093765968 
379 2 13.653029765626165 6.6533726230321895 10.195404019445339 -0.7241086984189069 -1.561595129799719 4.5238238834834288 
380 1 13.238359602368739 5.782382279811805 10.038903957416879 0.1266316317606305 -0.21556726096741013 -0.32379883944086835 
381 1 13.874679853292244 7.0325527722415861 9.4123637104205145 0.52065187780501199 1.797315484645039 -4.1347112008487397 
382 2 14.146579960446227 1.2765105033636661 8.6733834191701309 -0.43333125513567938 -0.66877518702741967 -0.35161872043700987 
383 1 13.292076623178307 1.4490105711470334 9.1501236072656038 1.1126944224725037 0.36183855537840359 0.30303138366740223 
384 1 14.922700266210779 1.7664406963849144 8.9791935399963361 -0.4415718373936986 0.34967540651001733 0.67436031217207526 
385 2 27.804689727789771 11.021604344931998 5.3254020994507201 -0.18851284229804877 -1.2676154297281703 0.38454238160410176 
386 1 27.317889535935006 11.645604591069674 4.7741418819415973 -0.16588184840136586 0.7993790233879412 -0.72227693498356205 
387 1 28.568660029063473 11.412304498877607 5.8007522866596037 0.026867026373284031 0.28928585256426659 -0.21161829161290677 
388 2 36.127803009128215 11.194004413039899 0.086768434406444148 0.24385439542094417 -0.52326564158566991 -0.6209438890101997 
389 1 35.240802659232855 10.926604307686388 0.34829313707207921 -0.18833589919351373 0.081357446110503107 0.13108606481452528 
390 1 36.283303070168593 10.599104178298328 11.709404616325905 0.040707753947322414 0.29595789367529285 0.34579506929675485 
391 2 35.039702580018243 7.995033152033475 7.5217829654178621 -1.9529591675461073 0.10243373635276069 -1.8710282967325904 
392 1 34.613572412253227 7.3029528789718032 8.0675031801624097 0.17212279713186987 0.50236006328798155 -0.11437467273884927 
393 1 34.299162288115475 8.1872532275752068 6.7791426723926458 2.0131704607051644 -0.52571825493456459 1.871456602814122 
394 2 30.631280842389828 4.2497216753312221 5.1475620293120645 -0.024833542125280578 2.072012714466406 -0.1350608510243336 
395 1 30.595400827914112 5.2613620743383569 4.9832719644125616 -0.32626001330409499 -1.3950719463701491 0.3864553518326807 
396 1 31.246491084668378 4.0216515854280868 4.4326917475541663 0.3209162399960297 -0.53092432816206836 -0.15143251735899896 
397 2 28.635940055408675 4.3111216993802515 1.0677604209294989 1.6941126220776215 0.48923057798476211 -0.0012808754862551818 
398 1 29.404780358657931 4.6181918207740882 1.6758806607111565 -1.1327960724542789 -0.14017552241094774 -1.1898802167798324 
399 1 28.710100085038128 4.9442919494138504 0.26631810518189203 -0.087285757485079024 -0.14489993148627942 0.515300625005916 
400 2 28.74660009940677 9.8946939005891146 8.7282534409157506 -1.0235357321744862 1.1506707902914515 -0.4833346403747999 
401 1 29.179930270264215 10.74490423589279 8.4890633465657999 0.25065651846836318 -0.72420903245723034 0.45546998517989673 
402 1 27.817499732678751 10.195004019155942 8.4850533448684793 0.49104413401959524 -0.87801213523293486 0.082116418630161003 
403 2 33.173521844201943 3.7590814820741132 3.4283113513389023 0.39308214350924608 -1.1569620533901439 -1.023535603056013 
404 1 34.040992186357329 4.0763416070170182 3.8229515068914997 -0.52025910253250851 -0.54102302399444013 -1.0238359303371785 
405 1 33.342721911053026 3.0391911982982793 2.6565710474467563 -0.12639463702870399 1.6259774056831637 1.9338547634182321 
406 2 25.551643839763937 3.902101538424577 9.6309337967578426 -0.79338962098454358 0.18848053515278573 2.5165293913557747 
407 1 26.120479063737509 3.9857315715055273 8.906383511277447 2.6303297870183178 0.49702026487789835 -2.3186813830585944 
408 1 37.197303430866789 3.6633914443160664 9.142853604082843 -1.9194486403629032 -0.40270726406765789 -0.31180586586955056 
409 2 27.357269551752292 4.4280017457352949 7.4511729374968896 0.97811231429689438 1.8433858037843409 0.32867058406904798 
410 1 27.73362969974167 5.3669221158372968 7.400512917328701 -0.63891792816552051 -1.4600615471455602 0.10956628259921324 
411 1 27.560229631704043 4.0410415929873871 6.5771325930620641 -0.17658395167056343 -0.15014429249184003 -0.21618256970221345 
412 2 35.237002657806535 11.807704655032975 5.5567121905866941 0.24518578059241458 -0.59464874313013416 -0.88028674125462925 
413 1 34.450452347578427 12.352204869715088 5.6265222179288745 -0.63056179319438932 0.7002566580395897 0.24513880426187337 
414 1 35.391602718592651 11.446104512483473 6.4520525436848697 0.43536494579824553 -0.028130510453637923 0.78651731544769754 
415 2 28.478739993535243 11.934904705256042 0.44243817423489507 -0.77633759272993919 1.0612666404184696 0.18405919735148735 
416 1 28.109759848265803 11.210204419204091 12.304504850947586 -0.00863641076538324 0.12039184433169037 0.081450451043699079 
417 1 27.764469711946848 0.24166009511830802 0.49262919416827827 0.65681916327492651 -0.96069759939703003 -0.37873615972848435 
418 2 30.337870726301496 8.183633226305572 11.082804369100916 -0.39348897692215573 0.05196335167288034 -1.3712886462454514 
419 1 31.091901023743972 7.923083123592825 10.496004137706032 0.043004798157533081 0.11444997879230938 0.40849025091243757 
420 1 30.694070866796267 8.4768733415697497 11.92740470207886 0.48526050843792101 -0.067803689829854241 1.2885245504958724 
421 2 32.025021391501845 3.1664412483590785 10.594704176702498 -0.7274179422618039 0.14743510448593722 -0.14616383107592715 
422 1 31.385451139483791 3.464581365713125 9.9003339030291553 0.68424104452977841 -0.041251916860494675 0.42524854010880803 
423 1 31.45012116487997 2.8479011225959403 11.337604469307268 0.1017272170124576 -0.13896832330431586 -0.43100636970653994 
424 2 30.10587063518226 1.9218107576355168 12.396404887141021 0.5121871343090586 2.7639736202985232 0.78943490346925804 
425 1 29.525280406282612 1.1863804675644385 12.334604862802594 -1.1124302717752317 -1.5588307087556039 -0.024588071405834105 
426 1 29.525840406476096 2.6821710575012929 0.35009513787044594 0.81544877624166889 -0.88389271588715412 -0.42508475654293715 
427 2 29.881930546904513 11.869504679371399 6.7558526632023783 0.18841924439692254 0.45538909148040341 0.40396534265632006 
428 1 30.55827081326165 11.224804425269056 7.0185827669896161 0.32209202405103265 0.10412905043339578 -0.058998077665381808 
429 1 30.100990633344992 0.31234412318013349 7.2043328399273818 0.067624802711289678 -0.21089212083698849 -0.42402338464302775 
430 2 25.383559773249299 10.061203966539134 2.1976808665107979 0.16353668734552831 0.35529781657405246 -0.53503639751601972 
431 1 25.850118957512489 10.777204248545713 2.7246210742564401 -0.52993668506038449 -0.25527094539868617 -0.93723941213671069 
432 1 24.963882607741247 10.412804105028789 1.352370533296994 0.48634490895836474 0.058652234011136645 1.1964287261323765 
433 2 36.224503047206873 1.0552104161492506 9.8494538827282572 -1.121917378379965 1.746021351471551 -0.82926067950957871 
434 1 36.407503119544131 0.20124107954020051 9.4812837378993233 0.053699051226824585 -1.3820246444832367 -0.48861292351810737 
435 1 35.708302843871252 1.5012705919436298 9.0729135769508886 0.77460561347720036 -0.39280831223706425 1.0215752838100092 
436 2 34.305912290551596 9.2332736401051143 4.6154218193918002 -0.64860000874499124 0.69931902870635165 1.1034155802325425 
437 1 35.101802604441424 8.8655434950124192 4.1935616534328366 0.3548957028169229 -0.16331829249234842 -0.58118764315903015 
438 1 34.601532407299558 10.065403968254852 5.065601996949856 0.14665558888662192 -0.11528604275117187 -0.20761864486797435 
439 2 29.101890239256392 6.9918027563194913 7.6642530214365534 -0.28351597014165442 1.4665163817039137 1.2655777885600854 
440 1 28.840830136187897 7.6371030105913409 6.9413027365845679 0.14933815139248963 -0.78511793658333184 0.094816955413179221 
441 1 29.004660201098559 7.5601629802470676 8.4970733495695541 0.1449274396415241 -0.97060307281201763 -1.3857129986235728 
442 2 32.218451467773477 8.2698932600589661 7.1154528048340762 -0.56590584938640243 0.72355335367212847 1.037996497426958 
443 1 31.512801189749233 7.8822031073517751 7.6736230252125841 0.17900486880567851 -0.010644467945170068 -0.62833547799662104 
444 1 32.450001559294762 9.0714235763888329 7.6889430313751195 0.074992310016561883 -0.51249999918692957 -0.41725475308998006 
445 2 24.974839612378378 7.3286328889783841 0.20004107867201124 -0.93433891587276019 -0.28260675939835528 -1.4479708499120925 
446 1 25.63219287137121 7.5729629852743354 0.80137031589660279 1.4984250373361716 0.83287851865111417 2.2549866172695738 
447 1 25.550385838956974 7.1738628278972874 11.83790466656345 -0.3543110722153841 -0.33539907264736274 -0.88932457765629547 
448 2 30.615370835919496 2.1989308666875433 7.5243429665291517 -0.49185172834169233 0.074651505726097411 0.50588634515350805 
449 1 30.365190737441683 2.8259111139493283 6.818332688191532 0.23078967786317781 -0.065988880406384759 -0.055210969138525745 
450 1 30.064950618965188 2.4647609715269554 8.3083432755076814 0.2761480812186129 -0.11467043995947898 -0.44995175301415063 
451 2 32.80098169736231 10.450704120145732 8.7458134478522229 -0.72295882912886977 -1.2522233982218509 -0.21507562645132691 
452 1 32.004711383435684 10.532404151870031 9.3210736747874723 0.49376836609371216 0.68919652636149709 -0.061041615864952638 
453 1 33.168401842508544 11.314604460340043 8.5081733542929463 -0.31843088752157667 0.64743720355889034 0.18231963302722368 
454 2 36.915903319617819 9.4935637427091297 10.311904065234408 0.91173936411740109 0.25903817898354481 0.71486304649362631 
455 1 36.521303164041242 8.6900434258523447 10.706504220810984 0.37854328578832974 0.34974358312067505 -0.12875624683812292 
456 1 25.423751789267762 9.6084237878937664 10.653504199664216 -1.0829993410110579 -0.4848658061141663 -0.39905993657659333 
457 2 26.063159041476133 4.0215515852234436 1.9215007576890526 -0.030672789012458908 -0.098620766311915117 0.20760340256033136 
458 1 26.980819402890805 4.0991516159658454 1.6157406367005833 0.47359645107352083 0.37601147671249274 0.23921801315566593 
459 1 25.563834844375734 4.4118217392945223 1.205210474930255 -0.50137234647993212 -0.1012558591668157 -0.11166971327406039 
460 2 32.91797174378371 5.7001322472265539 12.174604799432565 -0.24814609504765633 -0.040975128004027257 -0.35736467419803364 
461 1 32.858771720532594 4.8491519114583985 11.682504605727713 -0.053819516123262537 0.062023456060908595 0.31351289776821317 
462 1 33.790132087228791 5.7188322542734165 0.1929180761552097 0.37936357588740932 -0.1431901799476677 -0.054278291006128986 
463 2 28.903930161069979 1.7749406994918195 3.2816312937427803 0.31986591195071251 -0.92360995882934982 0.4775180568266566 
464 1 29.404210358602736 2.3304309188309724 2.6601210486260598 -0.0061310727289389001 -0.42369767700739991 0.20645246547157731 
465 1 29.526650406916598 0.99099039088020047 3.606531421514354 -0.27409350336931992 1.2303233376370186 -0.97805955124228128 
466 2 34.046872188653502 9.0510135681180319 11.055404358537862 0.86178698866425762 -0.67093913428160956 0.68441207472440124 
467 1 33.62308202186707 9.8825238958456634 10.903604298719163 -0.37935066145648705 1.1017598060714326 -0.27489708896886755 
468 1 33.701392052316152 8.4886833465290028 10.316104066950128 0.1420981990299317 0.38856610702890404 0.29446819747310349 
469 2 36.112503003218279 2.7753610938474949 0.25869310188120209 -0.5867215188819439 0.63203933895053366 -0.2323575041513613 
470 1 35.867502906662487 2.4666809724927163 11.790004647915836 0.14010781329514138 -0.32741824570476469 -0.24237086035867897 
471 1 35.725902850783747 3.7006114587822809 0.25705710132729159 0.80335349830481029 -0.63684210623457738 0.39865547770018872 
472 2 33.035801790230742 1.6324206436353956 1.5682106182280566 -1.5001211955592566 -0.51153411439038332 -0.095720415944500287 
473 1 32.101381421929212 1.6865006646639324 1.2142504785072221 0.89020210186979354 0.27020758371782377 0.23974355479668646 
474 1 32.918191743916417 0.85630033734166577 2.1817008599501357 0.50996769790842156 0.09482358425924016 -0.2792821975214258 
475 2 28.082449837516503 7.9039831157273888 5.2566620721285968 0.7537226154597082 -1.069073186614468 -0.43133806159031685 
476 1 28.831780132749216 7.5729029855748911 4.623711822756885 -1.0715439421888762 0.76499820157914311 0.81443704053050314 
477 1 27.934829779160921 8.8394634847164433 5.0957520086425978 0.20890124547044317 0.59402758454278293 -0.33434933303075193 
478 2 30.660630853503775 12.370104876712334 3.7802514904185096 0.68073839876468845 -2.1863659738671273 1.9586750375403394 
479 1 31.216331072584751 11.835004665391386 3.1185912295491995 -0.68790026010125349 0.56542040083946843 1.3215899713981181 
480 1 30.705130871543638 11.806404654489318 4.675951843300882 -0.051223925064693039 1.5388712182362212 -2.8367526111040848 
481 2 27.597139646223795 9.6734638134650321 11.419404501765388 -0.049227800718223497 1.1406951259410449 -1.2093695195535901 
482 1 28.136609858497085 9.762083848449608 10.590604175191421 -0.35240921674409587 0.11159660041496543 0.33804338838449149 
483 1 27.80633972878509 8.7946534672592929 11.670604600954706 0.29658798556377086 -1.3234544014043024 0.6868509592336175 
484 2 31.502511185466343 9.4454137238144984 4.6364818276698427 0.86156824601951854 0.13053486729286587 1.4099877030652741 
485 1 32.493731576340963 9.4931337423054227 4.481741766703057 -1.0657938265250024 -0.1509745195174477 0.058222590106971256 
486 1 31.485481179138219 9.2519636472902658 5.6279522187914841 0.13490085795550691 0.074742274346001197 -1.3426459814783331 
487 2 33.532901986230108 12.181204802355486 11.285004448979073 1.0903134544476876 0.15366216853685477 -0.49937810379478603 
488 1 34.473012356809406 12.318904856603263 11.023804345729912 -0.45675437379680972 -0.26361060601099046 0.27109825467209669 
489 1 33.414771939698319 0.40233315865377162 11.987004725619373 -0.24662626525241077 0.35270348957613357 0.42259209280901144 
490 2 36.70450323625861 1.2341904863982955 3.6429614363218414 0.69252209562740497 0.69859701618549941 -2.3932974011142276 
491 1 36.390203112716392 0.95618437700424097 4.4926917713840746 -0.6484478696162943 -0.98510307340216452 1.1358968272923908 
492 1 36.266703063714999 0.76519230162598373 2.8894911390728506 0.081034987245227688 0.37582837452375406 1.3333363309380373 
493 2 36.100502998240628 10.947804315615919 8.027933164855904 -1.3212592138308685 -0.6980359303586029 0.30813757671172554 
494 1 35.850902899679717 10.030703954394728 8.3552532940872783 0.36955978873865181 1.0729878694313326 -0.3943534765435035 
495 1 37.070203380319185 10.918604304544345 7.9084831175278616 0.46878585550556628 -0.24242787864136586 -0.088885486437627212 
496 2 33.784252084932618 8.947213527151586 1.4728605805307846 -0.16118924336424906 0.1535197323032203 1.2190639846265725 
497 1 34.049162189794352 8.9427735255797351 0.55692921938937212 0.16283473979172305 -0.10091570799599166 -1.5809918455759684 
498 1 34.512702372573159 8.5127033556785516 1.9622507736111483 0.25890300320089132 -0.20501322545514702 0.35179037061224855 
499 2 25.402777780752952 1.5072605943061563 6.2568824666041634 -0.55894845632351686 0.062664376028519556 -0.31304961094465694 
500 1 25.86410896301706 1.5539806128673561 7.1144828044894854 0.28219553941571063 -0.22086775517325388 0.4399404930625283 
501 1 25.974349006473158 2.0707608161198858 5.698682246640522 -0.13020220768131907 0.15586698037640576 0.00089002762586733869 
502 2 27.553489628600456 7.7536630566090325 1.9447307666506983 -1.5545828955992338 0.30757472649095563 0.3304959981948617 
503 1 28.357739945945699 7.5070929595391434 1.4881705868316089 0.49330150523801986 0.47835012445343611 -0.036360620250414658 
504 1 27.507749610774738 8.7295134414833839 2.1160908343236748 0.84223341716696187 -0.99346116246916349 -0.42140297301213997 
505 2 33.065921801809175 1.406090554541334 5.5510521884232311 0.9793156819185147 -0.46197700509905831 -0.38313918988100198 
506 1 32.401831540147526 1.3258305224829998 6.2328124570877028 -0.56545462677109537 0.19426117155760711 0.52471656680670753 
507 1 32.887321731596927 2.1819308599445559 5.0072219740009558 -0.12920880312265207 0.31704051164687269 -0.23456537340114664 
508 2 28.632570054386058 6.0778623958499187 11.343904472145436 0.53829131587355983 0.10805862369602391 0.10652665274122264 
509 1 29.339800333315289 6.7885926761207207 11.247704434031638 -0.55502379204503238 -0.49573230403820451 0.12333566533221033 
510 1 27.816139732435651 6.4187025302061329 10.911804301741313 0.010431219631145974 -0.26608425977385569 0.058411457175150491 
511 2 35.96840294645687 4.5683618007698268 3.6025214203462097 0.38414797167034714 -0.00035303659974829371 0.018963401976570746 
512 1 36.654203216403793 5.2815420820855623 3.7030314597129048 -0.10715124993349268 -0.66900131722201062 0.20771378630979129 
513 1 36.459403140027348 3.7131714639534175 3.5458113975868737 -0.22995593989315327 0.59771152605739652 -0.086608920414397758 
514 2 36.05150297892947 8.2054132346811848 2.9292411545360437 0.8350682270293629 0.75330887318019224 -0.65498402473266404 
515 1 36.797403272910948 8.8596634927162476 2.5992510246562035 -1.0441353477451298 -1.0476496976086453 0.9207301729198748 
516 1 36.482803148754797 7.4352029313271153 3.3689113282076777 0.32738657468984717 0.61527876533809933 -0.33264362832755751 
517 2 33.32763190488491 0.82399932507299523 8.4979333498477914 -0.1513244416436382 0.27368722393777994 1.3212601294008197 
518 1 32.585731612739039 1.4236505614778057 8.6362434046559606 -0.6149248834898362 0.44893757713273602 -1.0058793787016591 
519 1 33.485451967180445 0.77390030524321551 9.4716737337379833 0.59674252047704734 -0.71810164246398445 -0.26643665237704189 
520 2 25.563613844627277 7.2927228749175361 7.4705629450561899 -0.61517528951319922 0.25715582910753015 -1.6100227351585772 
521 1 37.071003380897977 7.3941229146767791 7.0126527643265346 1.5746897919641014 -0.10287415437561775 1.0525143871678644 
522 1 26.244649112998733 7.5248429664940142 6.7899226767786871 -0.75734985821958456 -0.19758301030229905 0.68684638221450145 
523 2 30.530740802379643 11.070204363953758 10.706404220606341 -0.14598933320925889 -0.08480710134178987 0.27565664517827954 
524 1 30.421980759623885 11.666004598949588 11.482604526852114 0.13694972953855036 -0.72683172063503643 -0.42426645912869526 
525 1 30.273000701025207 10.163204006467883 10.998304335880018 0.23633461818633711 0.66886532023082546 -0.11805395832168518 
526 2 32.727901668672978 7.313082882821428 9.7889938589095102 -0.85384242261972854 -1.0658950851017706 -2.5428765400193867 
527 1 32.864471722672079 6.7224926503911089 10.536504153910284 0.041899881218907344 -0.76773183307436565 0.86279679043611079 
528 1 32.512961583996173 6.7054126431668992 8.9883335432487677 0.40582775663915205 0.8837587068953473 1.8286036081130959 
529 2 33.004591777850479 11.474104523216033 2.8631611285298542 1.4260315083215174 -1.6426176357773226 -0.31667020322443901 
530 1 33.49610197177671 11.519004541016113 3.7052114607873969 -0.29163829412833703 0.46875661620122072 0.039684874833081321 
531 1 33.412211938587028 10.598804178213573 2.5019509864080365 -0.99036699493004821 1.3347571831622296 0.02690852399648621 
532 2 26.346339152981017 10.973804325959851 7.7483730546206555 -0.015150582935339215 -1.728370091285661 -1.2825801920878923 
533 1 26.564249238920219 10.943304314344623 6.763672666187734 0.15608426528240676 0.17056661199234982 0.90080946699803588 
534 1 26.601119253463946 11.80740465494822 8.1137331986204586 0.22145104320708864 1.6821563362756682 0.31881937785303938 
535 2 35.610002805164186 2.7222510731635499 7.6400330118777164 0.075504144632300652 -0.68729266895958674 -1.2245199460081659 
536 1 36.417003123109936 2.3631709317493139 7.1720428271361696 -0.31745285752149699 0.20421672163812277 0.10681460101225682 
537 1 34.923602534518572 2.4292809578698145 6.9902727557814153 0.2271137735144825 0.30625577752738598 0.92879735311298728 
538 2 26.907209374122303 1.6255006409042994 0.000299719091655248 0.0099530283405849795 0.70888725116627682 0.25798309193898111 
539 1 27.150119469946532 2.4729909746634182 0.41754716480047227 0.053296151103190366 -0.43779743350487493 -0.063917930565092873 
540 1 25.943018994164827 1.6985306697558959 0.056515422074285927 -0.48079876088229495 -0.17735682293455407 -0.057523432701651167 
541 2 35.675002830759425 5.4301421406474439 0.71507328207278165 0.6157563460119122 0.7453882826244701 0.39714617294312626 
542 1 35.845102897335593 5.3565521116023644 1.6739606597453953 -0.65841115135438377 -0.60064005855001135 0.33166503083660537 
543 1 36.352203097394806 6.1664724309727816 0.5653902226651798 -0.41729498435991474 -0.27537145199212076 -0.66587000341532954 
544 2 27.237319504459386 3.182021254630345 4.9864719656693781 -0.48669309201940864 -0.16624996642433923 -1.6330597440133645 
545 1 26.731929305094937 3.4126213455304586 4.1355116301538226 0.82759914355160757 -0.21174800076402217 1.3273462898649617 
546 1 27.901219766102631 2.5037509869165544 4.6764418434040333 -0.24767001164944752 0.6245503949806378 -0.20822197375097662 
547 2 25.592463855776362 6.6238626114849755 3.8923715343351719 -0.67101733965819199 -0.23604103664730969 1.6133796145838473 
548 1 26.082569048758856 6.6832026349167561 3.0827912155547059 1.1246059409656552 0.13096398747889096 -0.80095516073010975 
549 1 26.166259082068425 6.9164727264653365 4.6485718324612497 -0.027479254344341064 -0.19655188313119648 -0.95065096945390026 
550 2 30.414840756760082 7.1014027996300628 3.9435015548830892 0.26991733012962926 -0.54114932954881823 0.51726627274354775 
551 1 30.760470893139811 6.6629526265500409 3.1271612327464373 -0.49494672853442501 0.33675536104203929 -0.150007721894721 
552 1 31.037421002426036 7.8297230864224696 4.1982316549991072 -0.30505470955663105 0.19969166729035603 -0.30295657349684302 
553 2 28.954370181105457 10.237404036073357 2.4244409560085671 -0.77636555379415118 -0.60095727675422683 1.7604030106831992 
554 1 28.514420007601672 10.987904331530775 2.0140607937514381 0.22264798159525151 0.80311106975045687 -1.5148407356367919 
555 1 28.567290028429483 10.372104088944427 3.3200413086862963 0.86826570209323106 -0.57918795836653802 0.044325810040011418 
556 2 26.786569326316958 12.386204882671885 3.1990812610727763 -0.79030182095655765 0.55973833055579292 -0.34143564987043107 
557 1 27.514369613421081 0.58561123106250834 2.9333811565523189 -0.075616546027769238 -0.12852603370857574 0.1120593729717673 
558 1 25.955358998674079 0.53471921061005123 3.1264312322579766 0.59393751757469837 -0.54037500898243196 0.57557128648731304 
559 2 31.524341194208866 5.3322221019771732 8.3199832801719591 0.85146557660018485 -0.2852950152634387 -0.71757336130904037 
560 1 30.646960848336558 5.6848022412023083 8.1110631974428156 -0.12914132748625567 0.11102325902969346 -0.42003476812608442 
561 1 31.973371371265642 5.0769620012528032 7.4620929415344177 -0.85649760921497275 0.20749060575343095 0.82483181184238941 
562 2 31.081761020032637 8.5654333768548785 1.2902905085972374 1.363083170584952 -0.90645236418030828 -0.7546180185085124 
563 1 30.706080871635631 9.1341436007049417 1.9729407776542569 0.02993430359472915 0.31751903883235977 0.42795528306990793 
564 1 32.097721420154379 8.5176433577444453 1.3992405513713932 -1.7066953010816279 0.56296630467549302 0.1578339401634104 
565 2 28.915480165920499 3.1650912479776898 9.5824037778264124 0.13373007684626737 -0.22913531143174048 0.60153390250286976 
566 1 29.004000200700432 3.4074913434461696 10.533204152448825 -0.22998337111942677 0.011346726651044338 -0.78983992342285891 
567 1 28.466259988845326 3.8943415351386661 9.1173235941186395 -0.042623029756627399 0.18325770120591378 -0.0076408918081295142 
568 2 31.077501018088292 5.5372921829130819 1.8283107208136733 0.64253297389200947 -0.94311740015810763 1.3201625700082866 
569 1 31.730191275470972 5.9261023360072409 1.2104304773574766 -0.18343428871494968 -0.23582071059720014 -0.11489348679875482 
570 1 31.616221230678878 5.0069119740544918 2.4937309831332848 -0.39943094594782969 0.62343284293383949 -1.1070703093765981 
571 2 26.070129044044961 6.6533726230321895 10.195404019445339 -0.72410869841890679 -1.5615951297997299 4.5238238834834448 
572 1 25.655458880787535 5.782382279811805 10.038903957416879 0.12663163176063091 -0.21556726096741333 -0.32379883944086585 
573 1 26.291779131711039 7.0325527722415861 9.4123637104205145 0.52065187780501265 1.797315484645053 -4.1347112008487619 
574 2 26.563679238865021 1.2765105033636661 8.6733834191701309 -0.43333125513557469 -0.66877518702739536 -0.35161872043701475 
575 1 25.709175901597103 1.4490105711470334 9.1501236072656038 1.1126944224724558 0.36183855537841597 0.30303138366742788 
576 1 27.339799544629575 1.7664406963849144 8.9791935399963361 -0.44157183739374972 0.3496754065099853 0.67436031217205483 
577 2 2.9704911709521791 23.438703623350793 5.3254020994507201 -0.18851284229804049 -1.2676154297282252 0.38454238160412213 
578 1 2.4836909790974153 24.06270386948847 4.7741418819415973 -0.16588184840139863 0.79937902338797961 -0.72227693498359968 
579 1 3.7344614722258798 23.829403777296402 5.8007522866596037 0.026867026373310704 0.28928585256427747 -0.2116182916128895 
580 2 11.293604452290623 23.611103691458695 0.086768434406444148 0.24385439542106019 -0.52326564158565003 -0.62094388901026287 
581 1 10.406604102395265 23.343703586105185 0.34829313707207921 -0.1883358991936244 0.081357446110464637 0.13108606481455964 
582 1 11.449104513331001 23.016203456717122 11.709404616325905 0.04070775394731635 0.29595789367530789 0.34579506929677906 
583 2 10.205504023180653 20.412132430452271 7.5217829654178621 -1.9529591675461326 0.10243373635271723 -1.8710282967325609 
584 1 9.7793738554156366 19.720052157390597 8.0675031801624097 0.17212279713189282 0.50236006328801641 -0.11437467273887139 
585 1 9.4649637312778854 20.604352505994001 6.7791426723926458 2.0131704607051599 -0.52571825493455426 1.8714566028141164 
586 2 5.7970822855522348 16.666820953750019 5.1475620293120645 -0.024833542125249016 2.0720127144663909 -0.13506085102436674 
587 1 5.7612022710765203 17.678461352757154 4.9832719644125616 -0.32626001330410043 -1.3950719463701433 0.38645535183268137 
588 1 6.4122925278307878 16.438750863846884 4.4326917475541663 0.32091623999600316 -0.53092432816206192 -0.15143251735896557 
589 2 3.8017414985710816 16.728220977799047 1.0677604209294989 1.6941126220776679 0.48923057798479952 -0.0012808754862605814 
590 1 4.5705818018203406 17.035291099192882 1.6758806607111565 -1.1327960724543198 -0.14017552241095316 -1.1898802167798628 
591 1 3.8759015282005351 17.361391227832648 0.26631810518189203 -0.087285757485076762 -0.14489993148631108 0.5153006250059512 
592 2 3.9124015425691776 22.31179317900791 8.7282534409157506 -1.0235357321745084 1.1506707902914484 -0.48333464037480134 
593 1 4.3457317134266225 23.162003514311586 8.4890633465657999 0.25065651846836701 -0.72420903245723034 0.45546998517989429 
594 1 2.9833011758411585 22.612103297574738 8.4850533448684793 0.49104413401960778 -0.87801213523293709 0.082116418630163918 
595 2 8.3393232873643495 16.176180760492908 3.4283113513389023 0.39308214350940296 -1.1569620533900697 -1.0235356030559282 
596 1 9.2067936295197406 16.493440885435813 3.8229515068914997 -0.52025910253267027 -0.54102302399448943 -1.023835930337248 
597 1 8.5085233542154324 15.456290476717076 2.6565710474467563 -0.12639463702869966 1.6259774056831444 1.9338547634182135 
598 2 0.71744528292634369 16.319200816843374 9.6309337967578426 -0.79338962098447963 0.1884805351528018 2.5165293913557845 
599 1 1.2862805068999164 16.402830849924324 8.906383511277447 2.6303297870183111 0.49702026487789891 -2.3186813830585806 
600 1 12.363104874029196 16.080490722734861 9.142853604082843 -1.9194486403628057 -0.40270726406762708 -0.31180586586950115 
601 2 2.5230709949147001 16.84510102415409 7.4511729374968896 0.97811231429690304 1.843385803784416 0.32867058406908767 
602 1 2.8994311429040769 17.784021394256094 7.400512917328701 -0.63891792816553894 -1.4600615471456251 0.10956628259921551 
603 1 2.7260310748664502 16.458140871406183 6.5771325930620641 -0.17658395167055313 -0.15014429249185102 -0.21618256970224492 
604 2 10.402804100968941 24.224803933451771 5.5567121905866941 0.24518578059245683 -0.59464874313015859 -0.88028674125462136 
605 1 9.616253790740835 24.769304148133884 5.6265222179288745 -0.6305617931944183 0.70025665803960346 0.245138804261888 
606 1 10.557404161755061 23.863203790902269 6.4520525436848697 0.43536494579822888 -0.028130510453628764 0.78651731544767989 
607 2 3.6445414366976498 24.352003983674837 0.44243817423489507 -0.77633759272993585 1.0612666404184292 0.18405919735146187 
608 1 3.2755612914282102 23.627303697622885 12.304504850947586 -0.0086364107653731717 0.12039184433173697 0.081450451043720257 
609 1 2.9302711551092573 12.658759373537103 0.49262919416827827 0.65681916327486778 -0.96069759939697341 -0.37873615972847768 
610 2 5.5036721694639033 20.60073250472437 11.082804369100916 -0.39348897692214374 0.051963351672886786 -1.3712886462454106 
611 1 6.2577024669063785 20.340182402011621 10.496004137706032 0.043004798157541227 0.11444997879230942 0.40849025091242575 
612 1 5.8598723099586758 20.893972619988546 11.92740470207886 0.48526050843790403 -0.067803689829864094 1.28852455049584 
613 2 7.1908228346642531 15.583540526777874 10.594704176702498 -0.72741794226184886 0.14743510448595118 -0.14616383107594935 
614 1 6.5512525826461978 15.88168064413192 9.9003339030291553 0.68424104452981604 -0.041251916860507734 0.42524854010883639 
615 1 6.6159226080423776 15.265000401014737 11.337604469307268 0.10172721701247055 -0.13896832330431771 -0.43100636970654449 
616 2 5.2716720783446682 14.338910036054312 12.396404887141021 0.51218713430906104 2.7639736202985801 0.78943490346927281 
617 1 4.6910818494450197 13.603479745983234 12.334604862802594 -1.1124302717752586 -1.5588307087556321 -0.024588071405835625 
618 1 4.6916418496385033 15.099270335920089 0.35009513787044594 0.81544877624168799 -0.88389271588717899 -0.42508475654295003 
619 2 5.0477319900669197 24.286603957790195 6.7558526632023783 0.1884192443970259 0.45538909148030027 0.40396534265635659 
620 1 5.7240722564240603 23.641903703687852 7.0185827669896161 0.32209202405093773 0.104129050433468 -0.058998077665421436 
621 1 5.2667920765073992 12.72944340159893 7.2043328399273818 0.067624802711273885 -0.21089212083703418 -0.42402338464305528 
622 2 0.54936121641170799 22.478303244957928 2.1976808665107979 0.16353668734553484 0.35529781657415449 -0.53503639751602972 
623 1 1.0159204006748981 23.194303526964511 2.7246210742564401 -0.52993668506041847 -0.25527094539875139 -0.93723941213674777 
624 1 0.1296840509036539 22.829903383447586 1.352370533296994 0.48634490895839155 0.058652234011102256 1.1964287261324205 
625 2 11.390304490369283 13.472309694568047 9.8494538827282572 -1.1219173783799872 1.7460213514715686 -0.8292606795096068 
626 1 11.573304562706538 12.618340357958996 9.4812837378993233 0.053699051226828824 -1.3820246444832387 -0.48861292351810859 
627 1 10.87410428703366 13.918369870362426 9.0729135769508886 0.77460561347721391 -0.39280831223707263 1.021575283810032 
628 2 9.4717137337140045 21.65037291852391 4.6154218193918002 -0.64860000874500234 0.69931902870632312 1.1034155802325281 
629 1 10.267604047603832 21.282642773431213 4.1935616534328366 0.35489570281691235 -0.16331829249233273 -0.5811876431590195 
630 1 9.7673338504619629 22.482503246673648 5.065601996949856 0.14665558888664509 -0.11528604275116061 -0.20761864486797127 
631 2 4.2676916824188016 19.408902034738286 7.6642530214365534 -0.28351597014166791 1.4665163817039328 1.2655777885601038 
632 1 4.0066315793503042 20.054202289010135 6.9413027365845679 0.14933815139249557 -0.78511793658332907 0.094816955413180498 
633 1 4.1704616442609677 19.977262258665863 8.4970733495695541 0.14492743964153074 -0.97060307281203229 -1.3857129986235903 
634 2 7.384252910935885 20.68699253847776 7.1154528048340762 -0.56590584938642663 0.72355335367212004 1.0379964974269817 
635 1 6.6786026329116392 20.29930238577057 7.6736230252125841 0.17900486880570141 -0.010644467945166665 -0.62833547799663658 
636 1 7.6158030024571683 21.488522854807627 7.6889430313751195 0.074992310016570446 -0.51249999918692912 -0.41725475308998178 
637 2 0.14064105554078637 19.745732167397179 0.20004107867201124 -0.9343389158727029 -0.28260675939832308 -1.4479708499120207 
638 1 0.79799431453361835 19.990062263693133 0.80137031589660279 1.4984250373361054 0.83287851865109264 2.2549866172695157 
639 1 0.71618728211938143 19.590962106316084 11.83790466656345 -0.35431107221537561 -0.33539907264736984 -0.8893245776563089 
640 2 5.781172279081904 14.61603014510634 7.5243429665291517 -0.49185172834167795 0.074651505726062911 0.50588634515353892 
641 1 5.530992180604092 15.243010392368124 6.818332688191532 0.23078967786316362 -0.065988880406354464 -0.055210969138555263 
642 1 5.2307520621275962 14.881860249945751 8.3083432755076814 0.27614808121861523 -0.11467043995947802 -0.44995175301415807 
643 2 7.9667831405247176 22.867803398564526 8.7458134478522229 -0.72295882912881448 -1.2522233982218096 -0.21507562645135861 
644 1 7.1705128265980935 22.949503430288829 9.3210736747874723 0.49376836609364994 0.68919652636147688 -0.061041615864910435 
645 1 8.3342032856709487 23.731703738758839 8.5081733542929463 -0.31843088752156196 0.64743720355887191 0.18231963302721718 
646 2 12.081704762780227 21.910663021127924 10.311904065234408 0.91173936411738155 0.25903817898359183 0.71486304649359222 
647 1 11.687104607203651 21.107142704271141 10.706504220810984 0.37854328578831081 0.34974358312063369 -0.12875624683810349 
648 1 0.58955323243016799 22.025523066312562 10.653504199664216 -1.0829993410110508 -0.48486580611416985 -0.3990599365765885 
649 2 1.22896048463854 16.438650863642238 1.9215007576890526 -0.030672789012432922 -0.098620766311901045 0.20760340256029158 
650 1 2.1466208460532137 16.51625089438464 1.6157406367005833 0.47359645107347653 0.3760114767124903 0.23921801315568472 
651 1 0.72963628753814169 16.82892101771332 1.205210474930255 -0.50137234647991313 -0.10125585916682925 -0.11166971327403559 
652 2 8.0837731869461162 18.117231525645352 12.174604799432565 -0.24814609504751128 -0.040975128004048816 -0.35736467419797746 
653 1 8.0245731636950008 17.266251189877195 11.682504605727713 -0.053819516123264098 0.062023456060921855 0.31351289776821734 
654 1 8.9559335303912011 18.135931532692211 0.1929180761552097 0.37936357588727532 -0.14319017994766634 -0.054278291006190721 
655 2 4.0697316042323859 14.192039977910616 3.2816312937427803 0.31986591195078395 -0.92360995882935937 0.47751805682663956 
656 1 4.570011801765145 14.747530197249768 2.6601210486260598 -0.0061310727289672125 -0.42369767700740651 0.20645246547159676 
657 1 4.6924518500790073 13.408089669298997 3.606531421514354 -0.27409350336936067 1.2303233376370386 -0.97805955124228194 
658 2 9.2126736318159121 21.468112846536826 11.055404358537862 0.86178698866412973 -0.67093913428133312 0.68441207472435717 
659 1 8.7888834650294765 22.299623174264461 10.903604298719163 -0.3793506614563551 1.1017598060711615 -0.27489708896882115 
660 1 8.8671934954785616 20.905782624947797 10.316104066950128 0.1420981990299289 0.38856610702890726 0.29446819747310299 
661 2 11.278304446380686 15.192460372266291 0.25869310188120209 -0.58672151888192625 0.63203933895049058 -0.232357504151364 
662 1 11.033304349824895 14.883780250911512 11.790004647915836 0.14010781329513808 -0.32741824570476052 -0.24237086035867728 
663 1 10.891704293946153 16.117710737201076 0.25705710132729159 0.80335349830479486 -0.63684210623454129 0.39865547770018867 
664 2 8.2016032333931506 14.049519922054191 1.5682106182280566 -1.5001211955592189 -0.5115341143903992 -0.095720415944481857 
665 1 7.2671828650916206 14.103599943082727 1.2142504785072221 0.89020210186975435 0.27020758371782777 0.23974355479667342 
666 1 8.0839931870788249 13.273399615760461 2.1817008599501357 0.50996769790842367 0.094823584259254565 -0.27928219752143368 
667 2 3.2482512806789106 20.321082394146185 5.2566620721285968 0.75372261545974983 -1.0690731866144929 -0.43133806159034099 
668 1 3.9975815759116258 19.990002263993688 4.623711822756885 -1.0715439421889039 0.76499820157914145 0.81443704053052368 
669 1 3.1006312223233312 21.256562763135239 5.0957520086425978 0.20890124547043085 0.5940275845428058 -0.33434933303074771 
670 2 5.8264322966661837 24.787204155131128 3.7802514904185096 0.68073839876462661 -2.18636597386703 1.9586750375403599 
671 1 6.3821325157471573 24.252103943810184 3.1185912295491995 -0.68790026010121041 0.56542040083941947 1.3215899713980737 
672 1 5.8709323147060459 24.223503932908116 4.675951843300882 -0.051223925064688244 1.5388712182361912 -2.8367526111040631 
673 2 2.7629410893862012 22.09056309188383 11.419404501765388 -0.04922780071821134 1.1406951259410241 -1.2093695195536018 
674 1 3.3024113016594918 22.179183126868402 10.590604175191421 -0.35240921674409892 0.11159660041498971 0.33804338838448439 
675 1 2.9721411719474977 21.211752745678091 11.670604600954706 0.29658798556376281 -1.323454401404309 0.68685095923363604 
676 2 6.6683126286287511 21.862513002233293 4.6364818276698427 0.86156824601952564 0.13053486729288502 1.4099877030652712 
677 1 7.6595330195033711 21.91023302072422 4.481741766703057 -1.0657938265250038 -0.15097451951745636 0.058222590106961236 
678 1 6.6512826223006289 21.669062925709063 5.6279522187914841 0.13490085795549453 0.074742274345988874 -1.342645981478328 
679 2 8.6987034293925163 24.598304080774284 11.285004448979073 1.0903134544478177 0.15366216853680292 -0.49937810379487579 
680 1 9.6388137999718175 24.736004135022057 11.023804345729912 -0.45675437379695061 -0.26361060601098801 0.27109825467213727 
681 1 8.5805733828607273 12.819432437072567 11.987004725619373 -0.24662626525240874 0.35270348957607994 0.42259209280895615 
682 2 11.870304679421016 13.651289764817092 3.6429614363218414 0.69252209562744138 0.69859701618552228 -2.3932974011141654 
683 1 11.556004555878797 13.373283655423037 4.4926917713840746 -0.64844786961628964 -0.98510307340216119 1.1358968272923688 
684 1 11.432504506877409 13.18229158004478 2.8894911390728506 0.081034987245188927 0.37582837452372542 1.333336330937994 
685 2 11.266304441403033 23.364903594034715 8.027933164855904 -1.3212592138305981 -0.69803593035857525 0.30813757671168318 
686 1 11.016704342842127 22.447803232813524 8.3552532940872783 0.36955978873861534 1.0729878694312849 -0.39435347654348712 
687 1 12.236004823481595 23.335703582963141 7.9084831175278616 0.46878585550534846 -0.24242787864134924 -0.088885486437602843 
688 2 8.9500535280950295 21.364312805570382 1.4728605805307846 -0.16118924336440482 0.15351973230329952 1.2190639846265547 
689 1 9.2149636329567599 21.359872803998531 0.55692921938937212 0.16283473979174637 -0.10091570799599772 -1.5809918455760135 
690 1 9.6785038157355672 20.929802634097349 1.9622507736111483 0.25890300320100285 -0.20501322545521891 0.35179037061231161 
691 2 0.56857922391536131 13.924359872724953 6.2568824666041634 -0.55894845632353163 0.06266437602851227 -0.31304961094467454 
692 1 1.0299104061794673 13.971079891286152 7.1144828044894854 0.28219553941572101 -0.22086775517325008 0.43994049306253785 
693 1 1.1401504496355674 14.487860094538682 5.698682246640522 -0.13020220768131791 0.15586698037640795 0.00089002762586978812 
694 2 2.7192910717628642 20.170762335027828 1.9447307666506983 -1.5545828955991916 0.30757472649098905 0.33049599819484193 
695 1 3.5235413891081087 19.924192237957939 1.4881705868316089 0.49330150523797367 0.47835012445345143 -0.036360620250388338 
696 1 2.6735510539371448 21.14661271990218 2.1160908343236748 0.84223341716697053 -0.99346116246921157 -0.42140297301214669 
697 2 8.2317232449715814 13.82318983296013 5.5510521884232311 0.97931568191863572 -0.46197700509907075 -0.38313918988110796 
698 1 7.5676329833099363 13.742929800901795 6.2328124570877028 -0.56545462677120895 0.19426117155760342 0.52471656680681766 
699 1 8.0531231747593335 14.599030138363352 5.0072219740009558 -0.12920880312266456 0.31704051164688629 -0.23456537340114761 
700 2 3.7983714975484659 18.494961674268716 11.343904472145436 0.53829131587354839 0.108058623696013 0.10652665274122107 
701 1 4.5056017764776959 19.205691954539517 11.247704434031638 -0.55502379204502261 -0.49573230403819396 0.12333566533220809 
702 1 2.9819411755980587 18.835801808624929 10.911804301741313 0.010431219631147372 -0.26608425977385197 0.058411457175149041 
703 2 11.134204389619276 16.985461079188624 3.6025214203462097 0.38414797167045472 -0.00035303659986692885 0.018963401976564501 
704 1 11.820004659566203 17.698641360504357 3.7030314597129048 -0.10715124993351148 -0.66900131722198741 0.20771378630979348 
705 1 11.62520458318976 16.130270742372215 3.5458113975868737 -0.22995593989324375 0.59771152605749089 -0.086608920414391374 
706 2 11.217304422091877 20.622512513099981 2.9292411545360437 0.83506822702940231 0.75330887318014861 -0.65498402473263029 
707 1 11.963204716073355 21.276762771135044 2.5992510246562035 -1.0441353477451305 -1.0476496976086345 0.92073017291986925 
708 1 11.648604591917206 19.852302209745911 3.3689113282076777 0.32738657468982041 0.61527876533812964 -0.33264362832757916 
709 2 8.4934333480473185 13.241098603491791 8.4979333498477914 -0.1513244416435397 0.27368722393770473 1.3212601294008051 
710 1 7.7515330559014499 13.840749839896601 8.6362434046559606 -0.61492488348992469 0.44893757713280963 -1.0058793787016369 
711 1 8.6512534103428553 13.190999583662011 9.4716737337379833 0.59674252047703724 -0.71810164246398589 -0.26643665237704733 
712 2 0.72941528778968545 19.709822153336333 7.4705629450561899 -0.61517528951322809 0.25715582910751056 -1.6100227351585357 
713 1 12.236804824060387 19.811222193095574 7.0126527643265346 1.5746897919640352 -0.10287415437561082 1.0525143871678422 
714 1 1.4104505561611411 19.941942244912809 6.7899226767786871 -0.75734985821956413 -0.19758301030228609 0.68684638221446637 
715 2 5.6965422455420516 23.487303642372552 10.706404220606341 -0.14598933320924154 -0.084807101341693697 0.27565664517829908 
716 1 5.5877822027862942 24.083103877368384 11.482604526852114 0.13694972953855358 -0.72683172063506452 -0.42426645912872929 
717 1 5.4388021441876155 22.580303284886678 10.998304335880018 0.23633461818631923 0.6688653202307665 -0.11805395832166678 
718 2 7.8937031118353884 19.730182161240222 9.7889938589095102 -0.85384242261975107 -1.0658950851016624 -2.5428765400194946 
719 1 8.030273165834485 19.139591928809907 10.536504153910284 0.041899881218929104 -0.76773183307446069 0.86279679043621993 
720 1 7.6787630271585838 19.122511921585694 8.9883335432487677 0.40582775663914722 0.88375870689533909 1.8286036081130876 
721 2 8.1703932210128851 23.89120380163483 2.8631611285298542 1.4260315083215955 -1.6426176357774025 -0.31667020322441986 
722 1 8.6619034149391183 23.936103819434909 3.7052114607873969 -0.29163829412836617 0.46875661620123504 0.03968487483304986 
723 1 8.5780133817494377 23.015903456632369 2.5019509864080365 -0.9903669949300884 1.3347571831622875 0.026908523996497322 
724 2 1.5121405961434258 23.390903604378646 7.7483730546206555 -0.015150582935308243 -1.7283700912855724 -1.2825801920878417 
725 1 1.730050682082626 23.360403592763419 6.763672666187734 0.15608426528241448 0.1705666119923489 0.90080946699802356 
726 1 1.7669206966263544 24.224503933367018 8.1137331986204586 0.22145104320706019 1.6821563362755825 0.31881937785300241 
727 2 10.77580424832659 15.139350351582346 7.6400330118777164 0.075504144632483686 -0.6872926689595934 -1.2245199460081431 
728 1 11.582804566272344 14.78027021016811 7.1720428271361696 -0.31745285752159141 0.20421672163816232 0.10681460101230944 
729 1 10.089403977680981 14.84638023628861 6.9902727557814153 0.22711377351440326 0.30625577752735184 0.92879735311291933 
730 2 2.0730108172847106 14.042599919323095 0.000299719091655248 0.0099530283406148168 0.70888725116628237 0.25798309193898128 
731 1 2.3159209131089411 14.890090253082214 0.41754716480047227 0.05329615110317848 -0.43779743350488642 -0.063917930565095718 
732 1 1.1088204373272357 14.115629948174693 0.056515422074285927 -0.48079876088231216 -0.17735682293454572 -0.057523432701647018 
733 2 10.840804273921833 17.84724141906624 0.71507328207278165 0.61575634601188267 0.74538828262445478 0.39714617294312482 
734 1 11.010904340498 17.773651390021161 1.6739606597453953 -0.65841115135438122 -0.60064005855000902 0.3316650308366037 
735 1 11.518004540557213 18.583571709391578 0.5653902226651798 -0.41729498435989537 -0.27537145199209989 -0.66587000341532976 
736 2 2.4031209476217938 15.599120533049142 4.9864719656693781 -0.48669309201936284 -0.16624996642438628 -1.6330597440133825 
737 1 1.8977307482573451 15.829720623949255 4.1355116301538226 0.82759914355160946 -0.21174800076402397 1.3273462898649604 
738 1 3.0670212092650408 14.92085026533535 4.6764418434040333 -0.24767001164949434 0.6245503949806861 -0.20822197375096038 
739 2 0.75826529893877193 19.04096188990377 3.8923715343351719 -0.67101733965822008 -0.23604103664730555 1.6133796145838999 
740 1 1.2483704919212633 19.100301913335553 3.0827912155547059 1.1246059409656803 0.13096398747889446 -0.80095516073014739 
741 1 1.3320605252308348 19.333572004884132 4.6485718324612497 -0.027479254344351195 -0.19655188313119998 -0.95065096945391558 
742 2 5.5806421999224893 19.518502078048858 3.9435015548830892 0.26991733012963293 -0.54114932954877859 0.51726627274358694 
743 1 5.9262723363022172 19.080051904968837 3.1271612327464373 -0.49494672853440885 0.33675536104202453 -0.15000772189475209 
744 1 6.2032224455884455 20.246822364841265 4.1982316549991072 -0.30505470955664765 0.1996916672903371 -0.30295657349684924 
745 2 4.120171624267865 22.654503314492153 2.4244409560085671 -0.7763655537941524 -0.60095727675419741 1.760403010683137 
746 1 3.680221450764078 23.405003609949571 2.0140607937514381 0.22264798159527205 0.80311106975041691 -1.5148407356367599 
747 1 3.7330914715918917 22.789203367363221 3.3200413086862963 0.86826570209321319 -0.57918795836652515 0.044325810040048229 
748 2 1.9523707694793666 24.803304161090679 3.1990812610727763 -0.79030182095668633 0.55973833055585287 -0.341435649870441 
749 1 2.6801710565834878 13.002710509481304 2.9333811565523189 -0.075616546027682932 -0.12852603370849511 0.11205937297173334 
750 1 1.121160441836486 12.951818489028847 3.1264312322579766 0.59393751757470681 -0.54037500898242352 0.57557128648731182 
751 2 6.6901426373712747 17.749321380395969 8.3199832801719591 0.85146557660015787 -0.28529501526343243 -0.71757336130905247 
752 1 5.8127622914989674 18.101901519621105 8.1110631974428156 -0.12914132748623228 0.1110232590296822 -0.4200347681260776 
753 1 7.1391728144280506 17.494061279671598 7.4620929415344177 -0.85649760921497164 0.20749060575343156 0.82483181184239318 
754 2 6.2475624631950435 20.982532655273673 1.2902905085972374 1.3630831705849826 -0.90645236418027619 -0.75461801850847365 
755 1 5.8718823147980386 21.551242879123738 1.9729407776542569 0.029934303594733355 0.31751903883234078 0.42795528306987884 
756 1 7.2635228633167861 20.934742636163243 1.3992405513713932 -1.7066953010816437 0.56296630467548092 0.15783394016340388 
757 2 4.0812816090829092 15.582190526396486 9.5824037778264124 0.13373007684626659 -0.22913531143175742 0.60153390250284899 
758 1 4.16980164386284 15.824590621864965 10.533204152448825 -0.22998337111942668 0.01134672665105726 -0.78983992342283182 
759 1 3.6320614320077342 16.311440813557461 9.1173235941186395 -0.04262302975663014 0.18325770120592802 -0.0076408918081315004 
760 2 6.2433024612507015 17.954391461331877 1.8283107208136733 0.642532973891901 -0.94311740015810919 1.3201625700083037 
761 1 6.8959927186333783 18.343201614426036 1.2104304773574766 -0.18343428871488732 -0.23582071059716472 -0.11489348679880429 
762 1 6.7820226738412872 17.424011252473289 2.4937309831332848 -0.39943094594779266 0.62343284293380274 -1.1070703093765597 
763 2 1.2359304872073695 19.070471901450986 10.195404019445339 -0.72410869841890046 -1.5615951297997184 4.5238238834834181 
764 1 0.82126032394994319 18.199481558230602 10.038903957416879 0.12663163176062942 -0.21556726096740994 -0.32379883944086901 
765 1 1.4575805748734485 19.449652050660383 9.4123637104205145 0.52065187780500888 1.797315484645037 -4.1347112008487406 
766 2 1.7294806820274307 13.693609781782461 8.6733834191701309 -0.43333125513565551 -0.66877518702737726 -0.35161872043696429 
767 1 0.87497734475951017 13.866109849565829 9.1501236072656038 1.1126944224725324 0.36183855537839887 0.30303138366738241 
768 1 2.5056009877919831 14.183539974803711 8.9791935399963361 -0.44157183739375205 0.34967540650998358 0.67436031217205494 
769 2 15.387590449370975 23.438703623350793 5.3254020994507201 -0.18851284229800852 -1.2676154297282103 0.38454238160414334 
770 1 14.900790257516212 24.06270386948847 4.7741418819415973 -0.16588184840140097 0.7993790233879795 -0.72227693498360102 
771 1 16.151560750644677 23.829403777296402 5.8007522866596037 0.026867026373277605 0.28928585256426054 -0.21161829161290896 
772 2 23.710703730709419 23.611103691458695 0.086768434406444148 0.24385439542100079 -0.52326564158566702 -0.62094388901024111 
773 1 22.823703380814059 23.343703586105185 0.34829313707207921 -0.18833589919356331 0.081357446110482332 0.13108606481454041 
774 1 23.866203791749797 23.016203456717122 11.709404616325905 0.040707753947315829 0.29595789367530961 0.34579506929677706 
775 2 22.622603301599447 20.412132430452271 7.5217829654178621 -1.952959167546124 0.10243373635271531 -1.8710282967325567 
776 1 22.196473133834431 19.720052157390597 8.0675031801624097 0.17212279713189274 0.5023600632880163 -0.11437467273887153 
777 1 21.88206300969668 20.604352505994001 6.7791426723926458 2.0131704607051581 -0.52571825493455404 1.8714566028141109 
778 2 18.214181563971032 16.666820953750019 5.1475620293120645 -0.024833542125302099 2.0720127144664167 -0.1350608510243092 
779 1 18.178301549495316 17.678461352757154 4.9832719644125616 -0.32626001330409721 -1.3950719463701498 0.38645535183268304 
780 1 18.829391806249582 16.438750863846884 4.4326917475541663 0.32091623999605295 -0.53092432816208279 -0.15143251735902502 
781 2 16.218840776989879 16.728220977799047 1.0677604209294989 1.6941126220776015 0.48923057798478142 -0.0012808754863009586 
782 1 16.987681080239135 17.035291099192882 1.6758806607111565 -1.1327960724542674 -0.14017552241094031 -1.189880216779823 
783 1 16.293000806619332 17.361391227832648 0.26631810518189203 -0.087285757485079885 -0.14489993148631275 0.51530062500595308 
784 2 16.329500820987974 22.31179317900791 8.7282534409157506 -1.0235357321744898 1.1506707902914424 -0.4833346403747994 
785 1 16.762830991845419 23.162003514311586 8.4890633465657999 0.25065651846836379 -0.72420903245723001 0.45546998517989667 
786 1 15.400400454259955 22.612103297574738 8.4850533448684793 0.49104413401959457 -0.87801213523293165 0.082116418630161669 
787 2 20.756422565783147 16.176180760492908 3.4283113513389023 0.39308214350934567 -1.1569620533900902 -1.0235356030559528 
788 1 21.623892907938536 16.493440885435813 3.8229515068914997 -0.52025910253261298 -0.54102302399447111 -1.0238359303372231 
789 1 20.92562263263423 15.456290476717076 2.6565710474467563 -0.12639463702870143 1.6259774056831475 1.9338547634182175 
790 2 13.134544561345139 16.319200816843374 9.6309337967578426 -0.79338962098452004 0.18848053515278235 2.5165293913556965 
791 1 13.703379785318713 16.402830849924324 8.906383511277447 2.6303297870182654 0.4970202648778908 -2.3186813830585358 
792 1 24.780204152447993 16.080490722734861 9.142853604082843 -1.9194486403628088 -0.40270726406762847 -0.31180586586949705 
793 2 14.940170273333496 16.84510102415409 7.4511729374968896 0.97811231429690482 1.843385803784414 0.32867058406908495 
794 1 15.316530421322874 17.784021394256094 7.400512917328701 -0.63891792816554016 -1.4600615471456215 0.10956628259921572 
795 1 15.143130353285246 16.458140871406183 6.5771325930620641 -0.17658395167055507 -0.15014429249184827 -0.21618256970224456 
796 2 22.819903379387739 24.224803933451771 5.5567121905866941 0.24518578059241306 -0.59464874313012872 -0.88028674125462869 
797 1 22.033353069159631 24.769304148133884 5.6265222179288745 -0.63056179319439032 0.70025665803958947 0.24513880426187684 
798 1 22.974503440173855 23.863203790902269 6.4520525436848697 0.43536494579824353 -0.028130510453640276 0.78651731544769821 
799 2 16.061640715116447 24.352003983674837 0.44243817423489507 -0.77633759272997116 1.061266640418457 0.18405919735146353 
800 1 15.692660569847007 23.627303697622885 12.304504850947586 -0.0086364107653692859 0.12039184433173666 0.081450451043723171 
801 1 15.347370433528052 12.658759373537103 0.49262919416827827 0.65681916327490408 -0.9606975993969995 -0.37873615972847818 
802 2 17.9207714478827 20.60073250472437 11.082804369100916 -0.39348897692214335 0.051963351672864637 -1.3712886462454752 
803 1 18.674801745325176 20.340182402011621 10.496004137706032 0.04300479815752023 0.11444997879231746 0.40849025091244567 
804 1 18.276971588377471 20.893972619988546 11.92740470207886 0.48526050843792923 -0.067803689829851396 1.2885245504958831 
805 2 19.607922113083049 15.583540526777874 10.594704176702498 -0.72741794226180112 0.14743510448593994 -0.14616383107592276 
806 1 18.968351861064995 15.88168064413192 9.9003339030291553 0.6842410445297773 -0.041251916860495091 0.42524854010880697 
807 1 19.033021886461174 15.265000401014737 11.337604469307268 0.10172721701245824 -0.13896832330431896 -0.43100636970654016 
808 2 17.688771356763464 14.338910036054312 12.396404887141021 0.51218713430907226 2.7639736202985699 0.78943490346926559 
809 1 17.108181127863816 13.603479745983234 12.334604862802594 -1.112430271775257 -1.5588307087556312 -0.024588071405836451 
810 1 17.1087411280573 15.099270335920089 0.35009513787044594 0.81544877624167933 -0.88389271588717055 -0.42508475654294492 
811 2 17.464831268485717 24.286603957790195 6.7558526632023783 0.18841924439692212 0.45538909148036982 0.40396534265630718 
812 1 18.141171534842854 23.641903703687852 7.0185827669896161 0.32209202405103204 0.10412905043339374 -0.058998077665382523 
813 1 17.683891354926196 12.72944340159893 7.2043328399273818 0.067624802711286458 -0.21089212083702105 -0.42402338464304051 
814 2 12.966460494830503 22.478303244957928 2.1976808665107979 0.16353668734553634 0.35529781657416093 -0.53503639751602783 
815 1 13.433019679093693 23.194303526964511 2.7246210742564401 -0.52993668506041713 -0.25527094539875828 -0.93723941213674633 
816 1 12.54678332932245 22.829903383447586 1.352370533296994 0.48634490895838672 0.05865223401109846 1.1964287261324158 
817 2 23.807403768788078 13.472309694568047 9.8494538827282572 -1.1219173783799565 1.7460213514715235 -0.82926067950958715 
818 1 23.990403841125335 12.618340357958996 9.4812837378993233 0.053699051226814801 -1.3820246444832032 -0.48861292351809626 
819 1 23.291203565452456 13.918369870362426 9.0729135769508886 0.77460561347719414 -0.39280831223706686 1.0215752838100041 
820 2 21.8888130121328 21.65037291852391 4.6154218193918002 -0.64860000874500223 0.69931902870632445 1.1034155802325278 
821 1 22.684703326022628 21.282642773431213 4.1935616534328366 0.35489570281691279 -0.16331829249233137 -0.58118764315902049 
822 1 22.184433128880759 22.482503246673648 5.065601996949856 0.14665558888664629 -0.11528604275116414 -0.20761864486797066 
823 2 16.684790960837596 19.408902034738286 7.6642530214365534 -0.28351597014164864 1.4665163817038998 1.2655777885601174 
824 1 16.423730857769101 20.054202289010135 6.9413027365845679 0.14933815139248227 -0.78511793658330831 0.094816955413160348 
825 1 16.587560922679764 19.977262258665863 8.4970733495695541 0.14492743964152394 -0.97060307281202163 -1.3857129986235828 
826 2 19.801352189354681 20.68699253847776 7.1154528048340762 -0.56590584938639266 0.7235533536721358 1.0379964974269593 
827 1 19.095701911330437 20.29930238577057 7.6736230252125841 0.17900486880566979 -0.010644467945180012 -0.62833547799661382 
828 1 20.032902280875966 21.488522854807627 7.6889430313751195 0.074992310016563452 -0.51249999918693045 -0.41725475308998228 
829 2 12.557740333959583 19.745732167397179 0.20004107867201124 -0.93433891587272544 -0.28260675939833835 -1.4479708499120372 
830 1 13.215093592952414 19.990062263693133 0.80137031589660279 1.4984250373361245 0.83287851865109985 2.2549866172695263 
831 1 13.133286560538178 19.590962106316084 11.83790466656345 -0.35431107221537561 -0.33539907264736801 -0.8893245776563018 
832 2 18.1982715575007 14.61603014510634 7.5243429665291517 -0.49185172834168572 0.074651505726081022 0.50588634515351938 
833 1 17.948091459022887 15.243010392368124 6.818332688191532 0.23078967786317092 -0.065988880406369785 -0.055210969138538679 
834 1 17.647851340546392 14.881860249945751 8.3083432755076814 0.27614808121861273 -0.11467043995947779 -0.44995175301415147 
835 2 20.383882418943514 22.867803398564526 8.7458134478522229 -0.72295882912888865 -1.2522233982218005 -0.21507562645130643 
836 1 19.587612105016888 22.949503430288829 9.3210736747874723 0.49376836609372038 0.68919652636146822 -0.061041615864957377 
837 1 20.751302564089745 23.731703738758839 8.5081733542929463 -0.3184308875215589 0.64743720355887402 0.18231963302721499 
838 2 24.498804041199023 21.910663021127924 10.311904065234408 0.91173936411742895 0.25903817898359549 0.71486304649360932 
839 1 24.104203885622447 21.107142704271141 10.706504220810984 0.37854328578831109 0.34974358312063342 -0.12875624683810297 
840 1 13.006652510848964 22.025523066312562 10.653504199664216 -1.0829993410110079 -0.48486580611416352 -0.39905993657657501 
841 2 13.646059763057336 16.438650863642238 1.9215007576890526 -0.030672789012384558 -0.09862076631190432 0.20760340256029289 
842 1 14.56372012447201 16.51625089438464 1.6157406367005833 0.47359645107344694 0.3760114767124848 0.23921801315569341 
843 1 13.146735565956938 16.82892101771332 1.205210474930255 -0.50137234647992557 -0.10125585916682107 -0.11166971327404845 
844 2 20.500872465364914 18.117231525645352 12.174604799432565 -0.2481460950476547 -0.040975128004051981 -0.35736467419804041 
845 1 20.441672442113799 17.266251189877195 11.682504605727713 -0.053819516123268109 0.06202345606092402 0.31351289776821795 
846 1 21.373032808809995 18.135931532692211 0.1929180761552097 0.37936357588740971 -0.14319017994765956 -0.054278291006124219 
847 2 16.486830882651184 14.192039977910616 3.2816312937427803 0.31986591195071545 -0.92360995882936059 0.47751805682666693 
848 1 16.98711108018394 14.747530197249768 2.6601210486260598 -0.0061310727289349345 -0.42369767700738381 0.20645246547156679 
849 1 17.109551128497802 13.408089669298997 3.606531421514354 -0.2740935033693262 1.2303233376370204 -0.97805955124227895 
850 2 21.629772910234706 21.468112846536826 11.055404358537862 0.86178698866418013 -0.67093913428142915 0.68441207472438381 
851 1 21.205982743448274 22.299623174264461 10.903604298719163 -0.37935066145640395 1.101759806071253 -0.27489708896884152 
852 1 21.284292773897356 20.905782624947797 10.316104066950128 0.1420981990299269 0.38856610702890865 0.29446819747309672 
853 2 23.695403724799483 15.192460372266291 0.25869310188120209 -0.58672151888192625 0.63203933895048725 -0.23235750415137121 
854 1 23.450403628243691 14.883780250911512 11.790004647915836 0.14010781329514005 -0.32741824570476247 -0.24237086035867336 
855 1 23.308803572364951 16.117710737201076 0.25705710132729159 0.80335349830479452 -0.6368421062345393 0.39865547770019039 
856 2 20.618702511811946 14.049519922054191 1.5682106182280566 -1.5001211955592562 -0.51153411439039742 -0.095720415944494708 
857 1 19.684282143510416 14.103599943082727 1.2142504785072221 0.89020210186979176 0.27020758371782549 0.23974355479668566 
858 1 20.501092465497621 13.273399615760461 2.1817008599501357 0.50996769790842456 0.094823584259252164 -0.27928219752143307 
859 2 15.665350559097707 20.321082394146185 5.2566620721285968 0.75372261545971775 -1.0690731866144605 -0.43133806159032728 
860 1 16.41468085433042 19.990002263993688 4.623711822756885 -1.0715439421888748 0.76499820157913045 0.81443704053050348 
861 1 15.517730500742127 21.256562763135239 5.0957520086425978 0.20890124547043254 0.59402758454278703 -0.33434933303074177 
862 2 18.24353157508498 24.787204155131128 3.7802514904185096 0.68073839876464282 -2.1863659738670429 1.9586750375403466 
863 1 18.799231794165955 24.252103943810184 3.1185912295491995 -0.68790026010122163 0.56542040083942902 1.3215899713980852 
864 1 18.288031593124842 24.223503932908116 4.675951843300882 -0.051223925064686357 1.5388712182361881 -2.8367526111040622 
865 2 15.180040367804997 22.09056309188383 11.419404501765388 -0.049227800718219132 1.140695125941023 -1.209369519553591 
866 1 15.719510580078287 22.179183126868402 10.590604175191421 -0.35240921674409148 0.11159660041498901 0.33804338838447651 
867 1 15.389240450366295 21.211752745678091 11.670604600954706 0.29658798556376192 -1.3234544014043084 0.68685095923363426 
868 2 19.085411907047547 21.862513002233293 4.6364818276698427 0.86156824601951654 0.13053486729289188 1.4099877030652717 
869 1 20.076632297922167 21.91023302072422 4.481741766703057 -1.0657938265250024 -0.15097451951745935 0.058222590106967273 
870 1 19.068381900719423 21.669062925709063 5.6279522187914841 0.13490085795550513 0.074742274345989818 -1.342645981478334 
871 2 21.115802707811312 24.598304080774284 11.285004448979073 1.0903134544478188 0.15366216853680567 -0.49937810379487491 
872 1 22.055913078390613 24.736004135022057 11.023804345729912 -0.45675437379695327 -0.26361060601098718 0.27109825467213444 
873 1 20.997672661279523 12.819432437072567 11.987004725619373 -0.24662626525241016 0.35270348957608011 0.42259209280895621 
874 2 24.287403957839814 13.651289764817092 3.6429614363218414 0.69252209562738021 0.69859701618546621 -2.3932974011141877 
875 1 23.973103834297593 13.373283655423037 4.4926917713840746 -0.64844786961627754 -0.9851030734021422 1.1358968272923458 
876 1 23.849603785296203 13.18229158004478 2.8894911390728506 0.081034987245234821 0.37582837452376594 1.3333363309380415 
877 2 23.683403719821829 23.364903594034715 8.027933164855904 -1.3212592138306785 -0.69803593035857292 0.30813757671169245 
878 1 23.433803621260921 22.447803232813524 8.3552532940872783 0.36955978873862572 1.0729878694312904 -0.39435347654348696 
879 1 24.653104101900389 23.335703582963141 7.9084831175278616 0.46878585550541763 -0.24242787864135651 -0.08888548643761271 
880 2 21.367152806513825 21.364312805570382 1.4728605805307846 -0.16118924336439788 0.15351973230329957 1.219063984626553 
881 1 21.632062911375556 21.359872803998531 0.55692921938937212 0.16283473979174656 -0.10091570799599778 -1.5809918455760159 
882 1 22.095603094154363 20.929802634097349 1.9622507736111483 0.25890300320100323 -0.20501322545521641 0.35179037061231155 
883 2 12.985678502334157 13.924359872724953 6.2568824666041634 -0.55894845632349388 0.062664376028539165 -0.31304961094468275 
884 1 13.447009684598264 13.971079891286152 7.1144828044894854 0.28219553941571224 -0.22086775517325433 0.43994049306253102 
885 1 13.557249728054364 14.487860094538682 5.698682246640522 -0.13020220768134674 0.15586698037638361 0.00089002762588813672 
886 2 15.13639035018166 20.170762335027828 1.9447307666506983 -1.5545828955991774 0.30757472649098444 0.33049599819483777 
887 1 15.940640667526905 19.924192237957939 1.4881705868316089 0.49330150523796107 0.4783501244534567 -0.036360620250380643 
888 1 15.09065033235594 21.14661271990218 2.1160908343236748 0.8422334171669692 -0.99346116246921157 -0.42140297301214996 
889 2 20.648822523390379 13.82318983296013 5.5510521884232311 0.97931568191852403 -0.46197700509908241 -0.38313918988099172 
890 1 19.98473226172873 13.742929800901795 6.2328124570877028 -0.56545462677109459 0.19426117155761263 0.52471656680670409 
891 1 20.470222453178131 14.599030138363352 5.0072219740009558 -0.12920880312266056 0.31704051164688829 -0.23456537340115302 
892 2 16.215470775967262 18.494961674268716 11.343904472145436 0.53829131587357437 0.10805862369601818 0.10652665274123002 
893 1 16.922701054896493 19.205691954539517 11.247704434031638 -0.5550237920450356 -0.49573230403820406 0.12333566533220883 
894 1 15.399040454016856 18.835801808624929 10.911804301741313 0.010431219631135663 -0.26608425977384731 0.058411457175145134 
895 2 23.551303668038074 16.985461079188624 3.6025214203462097 0.38414797167035558 -0.00035303659989607914 0.018963401976559893 
896 1 24.237103937984998 17.698641360504357 3.7030314597129048 -0.10715124993344295 -0.66900131722193112 0.20771378630980145 
897 1 24.042303861608556 16.130270742372215 3.5458113975868737 -0.22995593989321611 0.59771152605745848 -0.086608920414391943 
898 2 23.634403700510674 20.622512513099981 2.9292411545360437 0.83506822702936734 0.75330887318018913 -0.65498402473265627 
899 1 24.380303994492152 21.276762771135044 2.5992510246562035 -1.0441353477451287 -1.0476496976086382 0.92073017291987247 
900 1 24.065703870336002 19.852302209745911 3.3689113282076777 0.32738657468984472 0.61527876533809611 -0.33264362832756028 
901 2 20.910532626466114 13.241098603491791 8.4979333498477914 -0.15132444164353465 0.27368722393770134 1.3212601294008124 
902 1 20.168632334320247 13.840749839896601 8.6362434046559606 -0.61492488348994023 0.44893757713282151 -1.0058793787016467 
903 1 21.068352688761649 13.190999583662011 9.4716737337379833 0.59674252047705034 -0.71810164246399688 -0.2664366523770435 
904 2 13.146514566208481 19.709822153336333 7.4705629450561899 -0.61517528951314393 0.25715582910751728 -1.610022735158559 
905 1 24.653904102479181 19.811222193095574 7.0126527643265346 1.5746897919640925 -0.10287415437561487 1.0525143871678628 
906 1 13.827549834579937 19.941942244912809 6.7899226767786871 -0.75734985821958134 -0.1975830103022973 0.68684638221450278 
907 2 18.113641523960847 23.487303642372552 10.706404220606341 -0.14598933320924246 -0.08480710134169861 0.27565664517829863 
908 1 18.004881481205089 24.083103877368384 11.482604526852114 0.13694972953855411 -0.72683172063506651 -0.42426645912873062 
909 1 17.855901422606411 22.580303284886678 10.998304335880018 0.2363346181863212 0.66886532023077128 -0.11805395832166768 
910 2 20.310802390254185 19.730182161240222 9.7889938589095102 -0.85384242261975052 -1.0658950851016875 -2.5428765400194639 
911 1 20.447372444253283 19.139591928809907 10.536504153910284 0.041899881218923997 -0.76773183307444015 0.8627967904361975 
912 1 20.095862305577381 19.122511921585694 8.9883335432487677 0.40582775663914727 0.88375870689533953 1.8286036081130845 
913 2 20.587492499431683 23.89120380163483 2.8631611285298542 1.4260315083215367 -1.6426176357773685 -0.31667020322445238 
914 1 21.079002693357914 23.936103819434909 3.7052114607873969 -0.29163829412833797 0.4687566162012306 0.039684874833086248 
915 1 20.995112660168232 23.015903456632369 2.5019509864080365 -0.99036699493006275 1.3347571831622609 0.026908523996494477 
916 2 13.929239874562221 23.390903604378646 7.7483730546206555 -0.01515058293532304 -1.7283700912855695 -1.2825801920878419 
917 1 14.147149960501421 23.360403592763419 6.763672666187734 0.15608426528241284 0.17056661199234863 0.90080946699802256 
918 1 14.18401997504515 24.224503933367018 8.1137331986204586 0.22145104320706158 1.6821563362755807 0.31881937785300157 
919 2 23.192903526745386 15.139350351582346 7.6400330118777164 0.075504144632483949 -0.6872926689595924 -1.224519946008144 
920 1 23.99990384469114 14.78027021016811 7.1720428271361696 -0.3174528575215913 0.20421672163816135 0.10681460101230729 
921 1 22.506503256099776 14.84638023628861 6.9902727557814153 0.2271137735144024 0.30625577752735356 0.92879735311291867 
922 2 14.490110095703507 14.042599919323095 0.000299719091655248 0.0099530283405922879 0.70888725116628226 0.25798309193898061 
923 1 14.733020191527737 14.890090253082214 0.41754716480047227 0.053296151103179507 -0.43779743350488504 -0.063917930565097009 
924 1 13.525919715746031 14.115629948174693 0.056515422074285927 -0.48079876088229068 -0.17735682293454677 -0.057523432701646185 
925 2 23.257903552340629 17.84724141906624 0.71507328207278165 0.61575634601190954 0.74538828262447399 0.39714617294312621 
926 1 23.428003618916797 17.773651390021161 1.6739606597453953 -0.65841115135438477 -0.60064005855000946 0.33166503083660187 
927 1 23.93510381897601 18.583571709391578 0.5653902226651798 -0.41729498435991763 -0.27537145199212065 -0.66587000341532987 
928 2 14.82022022604059 15.599120533049142 4.9864719656693781 -0.48669309201935884 -0.16624996642438797 -1.6330597440133874 
929 1 14.314830026676141 15.829720623949255 4.1355116301538226 0.82759914355160924 -0.21174800076402275 1.3273462898649599 
930 1 15.484120487683837 14.92085026533535 4.6764418434040333 -0.2476700116494954 0.62455039498068732 -0.20822197375096202 
931 2 13.175364577357568 19.04096188990377 3.8923715343351719 -0.67101733965820554 -0.23604103664730577 1.6133796145838712 
932 1 13.66546977034006 19.100301913335553 3.0827912155547059 1.1246059409656626 0.1309639874788929 -0.8009551607301274 
933 1 13.749159803649631 19.333572004884132 4.6485718324612497 -0.027479254344350116 -0.19655188313119945 -0.95065096945390959 
934 2 17.997741478341286 19.518502078048858 3.9435015548830892 0.26991733012961755 -0.54114932954880546 0.51726627274356818 
935 1 18.343371614721015 19.080051904968837 3.1271612327464373 -0.49494672853441551 0.33675536104202775 -0.15000772189474038 
936 1 18.620321724007241 20.246822364841265 4.1982316549991072 -0.30505470955662761 0.19969166729035312 -0.30295657349684257 
937 2 16.537270902686661 22.654503314492153 2.4244409560085671 -0.77636555379414052 -0.60095727675423494 1.7604030106831901 
938 1 16.097320729182876 23.405003609949571 2.0140607937514381 0.22264798159524979 0.80311106975045632 -1.5148407356367812 
939 1 16.150190750010687 22.789203367363221 3.3200413086862963 0.86826570209322618 -0.57918795836652937 0.044325810040015123 
940 2 14.369470047898162 24.803304161090679 3.1990812610727763 -0.79030182095665757 0.55973833055587785 -0.34143564987044672 
941 1 15.097270335002284 13.002710509481304 2.9333811565523189 -0.075616546027706247 -0.12852603370851162 0.11205937297173778 
942 1 13.538259720255281 12.951818489028847 3.1264312322579766 0.59393751757471192 -0.54037500898242385 0.57557128648731137 
943 2 19.10724191579007 17.749321380395969 8.3199832801719591 0.85146557660016187 -0.28529501526342976 -0.71757336130904636 
944 1 18.229861569917762 18.101901519621105 8.1110631974428156 -0.12914132748622642 0.11102325902967923 -0.42003476812608104 
945 1 19.556272092846847 17.494061279671598 7.4620929415344177 -0.85649760921497919 0.20749060575343345 0.82483181184239107 
946 2 18.664661741613841 20.982532655273673 1.2902905085972374 1.3630831705849533 -0.90645236418027264 -0.75461801850847554 
947 1 18.288981593216835 21.551242879123738 1.9729407776542569 0.029934303594733924 0.31751903883234078 0.42795528306987968 
948 1 19.680622141735583 20.934742636163243 1.3992405513713932 -1.7066953010816259 0.56296630467548014 0.15783394016340674 
949 2 16.498380887501703 15.582190526396486 9.5824037778264124 0.13373007684630037 -0.22913531143179078 0.60153390250290084 
950 1 16.586900922281636 15.824590621864965 10.533204152448825 -0.22998337111943079 0.011346726651049148 -0.7898399234228608 
951 1 16.049160710426531 16.311440813557461 9.1173235941186395 -0.042623029756656577 0.18325770120596702 -0.00764089180815445 
952 2 18.660401739669496 17.954391461331877 1.8283107208136733 0.64253297389199915 -0.94311740015809287 1.3201625700082695 
953 1 19.313091997052176 18.343201614426036 1.2104304773574766 -0.18343428871494794 -0.23582071059719786 -0.11489348679875588 
954 1 19.199121952260082 17.424011252473289 2.4937309831332848 -0.39943094594781697 0.62343284293382273 -1.107070309376581 
955 2 13.653029765626165 19.070471901450986 10.195404019445339 -0.72410869841890246 -1.5615951297997188 4.5238238834834199 
956 1 13.238359602368739 18.199481558230602 10.038903957416879 0.12663163176062783 -0.21556726096741094 -0.32379883944086973 
957 1 13.874679853292244 19.449652050660383 9.4123637104205145 0.52065187780501254 1.7973154846450374 -4.1347112008487379 
958 2 14.146579960446227 13.693609781782461 8.6733834191701309 -0.43333125513565074 -0.66877518702738914 -0.35161872043698389 
959 1 13.292076623178307 13.866109849565829 9.1501236072656038 1.1126944224725068 0.3618385553783986 0.30303138366739391 
960 1 14.922700266210779 14.183539974803711 8.9791935399963361 -0.44157183739373401 0.34967540650999174 0.67436031217205805 
961 2 27.804689727789771 23.438703623350793 5.3254020994507201 -0.18851284229804496 -1.2676154297281712 0.38454238160410781 
962 1 27.317889535935006 24.06270386948847 4.7741418819415973 -0.16588184840136624 0.79937902338793909 -0.72227693498356571 
963 1 28.568660029063473 23.829403777296402 5.8007522866596037 0.026867026373281491 0.28928585256426381 -0.21161829161290852 
964 2 36.127803009128215 23.611103691458695 0.086768434406444148 0.2438543954209984 -0.5232656415856678 -0.62094388901023856 
965 1 35.240802659232855 23.343703586105185 0.34829313707207921 -0.18833589919356325 0.081357446110485621 0.13108606481453952 
966 1 36.283303070168593 23.016203456717122 11.709404616325905 0.040707753947315226 0.29595789367531006 0.34579506929677467 
967 2 35.039702580018243 20.412132430452271 7.5217829654178621 -1.952959167546124 0.10243373635271752 -1.8710282967325578 
968 1 34.613572412253227 19.720052157390597 8.0675031801624097 0.17212279713189371 0.50236006328801541 -0.11437467273887218 
969 1 34.299162288115475 20.604352505994001 6.7791426723926458 2.0131704607051586 -0.52571825493455449 1.871456602814112 
970 2 30.631280842389828 16.666820953750019 5.1475620293120645 -0.024833542125299542 2.0720127144664118 -0.13506085102430856 
971 1 30.595400827914112 17.678461352757154 4.9832719644125616 -0.32626001330409854 -1.3950719463701491 0.38645535183268348 
972 1 31.246491084668378 16.438750863846884 4.4326917475541663 0.32091623999605057 -0.53092432816208157 -0.15143251735902455 
973 2 28.635940055408675 16.728220977799047 1.0677604209294989 1.6941126220776064 0.48923057798478164 -0.0012808754863030125 
974 1 29.404780358657931 17.035291099192882 1.6758806607111565 -1.1327960724542689 -0.1401755224109385 -1.1898802167798228 
975 1 28.710100085038128 17.361391227832648 0.26631810518189203 -0.087285757485078497 -0.14489993148631153 0.51530062500595264 
976 2 28.74660009940677 22.31179317900791 8.7282534409157506 -1.0235357321744893 1.1506707902914433 -0.48333464037480062 
977 1 29.179930270264215 23.162003514311586 8.4890633465657999 0.25065651846836373 -0.72420903245722934 0.45546998517989679 
978 1 27.817499732678751 22.612103297574738 8.4850533448684793 0.49104413401959213 -0.87801213523293165 0.0821164186301611 
979 2 33.173521844201943 16.176180760492908 3.4283113513389023 0.39308214350924964 -1.1569620533901248 -1.0235356030560019 
980 1 34.040992186357329 16.493440885435813 3.8229515068914997 -0.52025910253251517 -0.5410230239944398 -1.023835930337178 
981 1 33.342721911053026 15.456290476717076 2.6565710474467563 -0.12639463702870379 1.6259774056831484 1.9338547634182208 
982 2 25.551643839763937 16.319200816843374 9.6309337967578426 -0.793389620984572 0.18848053515277546 2.5165293913557578 
983 1 26.120479063737509 16.402830849924324 8.906383511277447 2.6303297870183178 0.49702026487790024 -2.3186813830585971 
984 1 37.197303430866789 16.080490722734861 9.142853604082843 -1.9194486403628883 -0.40270726406765589 -0.31180586586954384 
985 2 27.357269551752292 16.84510102415409 7.4511729374968896 0.97811231429691059 1.8433858037844075 0.3286705840690663 
986 1 27.73362969974167 17.784021394256094 7.400512917328701 -0.63891792816553972 -1.4600615471456193 0.10956628259921675 
987 1 27.560229631704043 16.458140871406183 6.5771325930620641 -0.17658395167055943 -0.1501442924918453 -0.21618256970222791 
988 2 35.237002657806535 24.224803933451771 5.5567121905866941 0.24518578059241675 -0.5946487431301315 -0.88028674125462492 
989 1 34.450452347578427 24.769304148133884 5.6265222179288745 -0.63056179319439043 0.70025665803958892 0.24513880426187498 
990 1 35.391602718592651 23.863203790902269 6.4520525436848697 0.43536494579824436 -0.028130510453637288 0.78651731544769521 
991 2 28.478739993535243 24.352003983674837 0.44243817423489507 -0.77633759272997138 1.0612666404184603 0.18405919735146276 
992 1 28.109759848265803 23.627303697622885 12.304504850947586 -0.0086364107653703823 0.12039184433173339 0.08145045104372084 
993 1 27.764469711946848 12.658759373537103 0.49262919416827827 0.65681916327490408 -0.96069759939700083 -0.37873615972847968 
994 2 30.337870726301496 20.60073250472437 11.082804369100916 -0.39348897692214696 0.051963351672866025 -1.371288646245469 
995 1 31.091901023743972 20.340182402011621 10.496004137706032 0.043004798157523727 0.11444997879231496 0.40849025091244479 
996 1 30.694070866796267 20.893972619988546 11.92740470207886 0.4852605084379249 -0.067803689829851868 1.2885245504958833 
997 2 32.025021391501845 15.583540526777874 10.594704176702498 -0.72741794226180212 0.14743510448593874 -0.14616383107592565 
998 1 31.385451139483791 15.88168064413192 9.9003339030291553 0.68424104452977896 -0.041251916860495112 0.42524854010880847 
999 1 31.45012116487997 15.265000401014737 11.337604469307268 0.10172721701245926 -0.13896832330431982 -0.43100636970653794 
1000 2 30.10587063518226 14.338910036054312 12.396404887141021 0.51218713430907126 2.7639736202985747 0.78943490346926548 
1001 1 29.525280406282612 13.603479745983234 12.334604862802594 -1.1124302717752581 -1.5588307087556328 -0.024588071405836527 
1002 1 29.525840406476096 15.099270335920089 0.35009513787044594 0.81544877624167944 -0.88389271588717033 -0.42508475654294492 
1003 2 29.881930546904513 24.286603957790195 6.7558526632023783 0.18841924439692115 0.45538909148037199 0.40396534265630879 
1004 1 30.55827081326165 23.641903703687852 7.0185827669896161 0.32209202405102982 0.10412905043339385 -0.058998077665383342 
1005 1 30.100990633344992 12.72944340159893 7.2043328399273818 0.067624802711285875 -0.21089212083702036 -0.42402338464304123 
1006 2 25.383559773249299 22.478303244957928 2.1976808665107979 0.16353668734555066 0.3552978165741561 -0.53503639751601295 
1007 1 25.850118957512489 23.194303526964511 2.7246210742564401 -0.52993668506041558 -0.255270945398758 -0.93723941213674267 
1008 1 24.963882607741247 22.829903383447586 1.352370533296994 0.48634490895837384 0.058652234011105128 1.1964287261324003 
1009 2 36.224503047206873 13.472309694568047 9.8494538827282572 -1.1219173783799565 1.746021351471523 -0.82926067950959403 
1010 1 36.407503119544131 12.618340357958996 9.4812837378993233 0.053699051226816896 -1.3820246444832061 -0.48861292351809377 
1011 1 35.708302843871252 13.918369870362426 9.0729135769508886 0.77460561347719914 -0.39280831223706641 1.0215752838100089 
1012 2 34.305912290551596 21.65037291852391 4.6154218193918002 -0.64860000874498147 0.69931902870634666 1.1034155802325363 
1013 1 35.101802604441424 21.282642773431213 4.1935616534328366 0.35489570281691207 -0.1633182924923394 -0.58118764315902316 
1014 1 34.601532407299558 22.482503246673648 5.065601996949856 0.14665558888662439 -0.11528604275117794 -0.20761864486797887 
1015 2 29.101890239256392 19.408902034738286 7.6642530214365534 -0.28351597014164825 1.4665163817039 1.2655777885601167 
1016 1 28.840830136187897 20.054202289010135 6.9413027365845679 0.14933815139248144 -0.78511793658330808 0.09481695541315667 
1017 1 29.004660201098559 19.977262258665863 8.4970733495695541 0.14492743964152449 -0.9706030728120224 -1.3857129986235814 
1018 2 32.218451467773477 20.68699253847776 7.1154528048340762 -0.56590584938639121 0.72355335367213536 1.0379964974269564 
1019 1 31.512801189749233 20.29930238577057 7.6736230252125841 0.17900486880566854 -0.010644467945178929 -0.62833547799661327 
1020 1 32.450001559294762 21.488522854807627 7.6889430313751195 0.074992310016562924 -0.51249999918692846 -0.41725475308997939 
1021 2 24.974839612378378 19.745732167397179 0.20004107867201124 -0.93433891587272455 -0.28260675939833452 -1.4479708499120354 
1022 1 25.63219287137121 19.990062263693133 0.80137031589660279 1.4984250373361232 0.83287851865110019 2.2549866172695294 
1023 1 25.550385838956974 19.590962106316084 11.83790466656345 -0.35431107221537295 -0.33539907264736885 -0.88932457765630735 
1024 2 30.615370835919496 14.61603014510634 7.5243429665291517 -0.491851728341685 0.074651505726080161 0.50588634515352315 
1025 1 30.365190737441683 15.243010392368124 6.818332688191532 0.23078967786317087 -0.065988880406370007 -0.055210969138538686 
1026 1 30.064950618965188 14.881860249945751 8.3083432755076814 0.27614808121861306 -0.1146704399594787 -0.44995175301415313 
1027 2 32.80098169736231 22.867803398564526 8.7458134478522229 -0.72295882912887044 -1.2522233982217792 -0.21507562645132025 
1028 1 32.004711383435684 22.949503430288829 9.3210736747874723 0.49376836609372748 0.68919652636147843 -0.061041615864963164 
1029 1 33.168401842508544 23.731703738758839 8.5081733542929463 -0.31843088752158655 0.64743720355883982 0.18231963302722817 
1030 2 36.915903319617819 21.910663021127924 10.311904065234408 0.9117393641174194 0.25903817898359338 0.71486304649360788 
1031 1 36.521303164041242 21.107142704271141 10.706504220810984 0.37854328578831248 0.34974358312063381 -0.12875624683810274 
1032 1 25.423751789267762 22.025523066312562 10.653504199664216 -1.0829993410110574 -0.48486580611416991 -0.39905993657659139 
1033 2 26.063159041476133 16.438650863642238 1.9215007576890526 -0.030672789012495823 -0.098620766311890928 0.20760340256028043 
1034 1 26.980819402890805 16.51625089438464 1.6157406367005833 0.47359645107352305 0.37601147671249452 0.23921801315566679 
1035 1 25.563834844375734 16.82892101771332 1.205210474930255 -0.50137234647989215 -0.10125585916684404 -0.11166971327400774 
1036 2 32.91797174378371 18.117231525645352 12.174604799432565 -0.24814609504765611 -0.040975128004049205 -0.35736467419804158 
1037 1 32.858771720532594 17.266251189877195 11.682504605727713 -0.053819516123267623 0.062023456060923146 0.31351289776821789 
1038 1 33.790132087228791 18.135931532692211 0.1929180761552097 0.3793635758874121 -0.14319017994766001 -0.054278291006123164 
1039 2 28.903930161069979 14.192039977910616 3.2816312937427803 0.31986591195070829 -0.92360995882936225 0.47751805682666804 
1040 1 29.404210358602736 14.747530197249768 2.6601210486260598 -0.0061310727289349276 -0.42369767700738481 0.20645246547156643 
1041 1 29.526650406916598 13.408089669298997 3.606531421514354 -0.27409350336932403 1.2303233376370215 -0.97805955124227939 
1042 2 34.046872188653502 21.468112846536826 11.055404358537862 0.86178698866418146 -0.67093913428143248 0.68441207472438059 
1043 1 33.62308202186707 22.299623174264461 10.903604298719163 -0.37935066145640473 1.1017598060712541 -0.27489708896884091 
1044 1 33.701392052316152 20.905782624947797 10.316104066950128 0.14209819902992327 0.38856610702890804 0.29446819747310082 
1045 2 36.112503003218279 15.192460372266291 0.25869310188120209 -0.58672151888192925 0.63203933895048914 -0.23235750415136852 
1046 1 35.867502906662487 14.883780250911512 11.790004647915836 0.14010781329514158 -0.32741824570476197 -0.24237086035867267 
1047 1 35.725902850783747 16.117710737201076 0.25705710132729159 0.80335349830479552 -0.63684210623454029 0.39865547770018839 
1048 2 33.035801790230742 14.049519922054191 1.5682106182280566 -1.5001211955592555 -0.5115341143903962 -0.09572041594449171 
1049 1 32.101381421929212 14.103599943082727 1.2142504785072221 0.89020210186978965 0.27020758371782666 0.23974355479668524 
1050 1 32.918191743916417 13.273399615760461 2.1817008599501357 0.50996769790842611 0.094823584259252747 -0.27928219752143285 
1051 2 28.082449837516503 20.321082394146185 5.2566620721285968 0.75372261545971497 -1.0690731866144649 -0.43133806159032062 
1052 1 28.831780132749216 19.990002263993688 4.623711822756885 -1.0715439421888759 0.76499820157913423 0.81443704053050203 
1053 1 27.934829779160921 21.256562763135239 5.0957520086425978 0.20890124547043787 0.59402758454278515 -0.33434933303074538 
1054 2 30.660630853503775 24.787204155131128 3.7802514904185096 0.68073839876464282 -2.1863659738670451 1.9586750375403457 
1055 1 31.216331072584751 24.252103943810184 3.1185912295491995 -0.68790026010122274 0.56542040083942902 1.3215899713980876 
1056 1 30.705130871543638 24.223503932908116 4.675951843300882 -0.051223925064686766 1.538871218236189 -2.8367526111040617 
1057 2 27.597139646223795 22.09056309188383 11.419404501765388 -0.04922780071822401 1.140695125941027 -1.2093695195535885 
1058 1 28.136609858497085 22.179183126868402 10.590604175191421 -0.35240921674408887 0.11159660041498881 0.33804338838447112 
1059 1 27.80633972878509 21.211752745678091 11.670604600954706 0.29658798556376298 -1.3234544014043101 0.68685095923363371 
1060 2 31.502511185466343 21.862513002233293 4.6364818276698427 0.86156824601951909 0.13053486729288991 1.4099877030652728 
1061 1 32.493731576340963 21.91023302072422 4.481741766703057 -1.0657938265250031 -0.15097451951745675 0.058222590106967703 
1062 1 31.485481179138219 21.669062925709063 5.6279522187914841 0.13490085795550338 0.074742274345989942 -1.342645981478334 
1063 2 33.532901986230108 24.598304080774284 11.285004448979073 1.0903134544476776 0.15366216853678683 -0.49937810379483832 
1064 1 34.473012356809406 24.736004135022057 11.023804345729912 -0.45675437379680173 -0.26361060601097386 0.27109825467209797 
1065 1 33.414771939698319 12.819432437072567 11.987004725619373 -0.24662626525241158 0.35270348957608433 0.42259209280896115 
1066 2 36.70450323625861 13.651289764817092 3.6429614363218414 0.69252209562740508 0.69859701618549219 -2.3932974011142401 
1067 1 36.390203112716392 13.373283655423037 4.4926917713840746 -0.64844786961629641 -0.98510307340216585 1.1358968272923948 
1068 1 36.266703063714999 13.18229158004478 2.8894911390728506 0.081034987245231851 0.37582837452375972 1.333336330938045 
1069 2 36.100502998240628 23.364903594034715 8.027933164855904 -1.3212592138308694 -0.69803593035860378 0.30813757671172526 
1070 1 35.850902899679717 22.447803232813524 8.3552532940872783 0.36955978873865314 1.0729878694313328 -0.39435347654350217 
1071 1 37.070203380319185 23.335703582963141 7.9084831175278616 0.46878585550556673 -0.2424278786413675 -0.088885486437626018 
1072 2 33.784252084932618 21.364312805570382 1.4728605805307846 -0.16118924336426893 0.15351973230323981 1.2190639846265594 
1073 1 34.049162189794352 21.359872803998531 0.55692921938937212 0.16283473979172294 -0.10091570799599163 -1.5809918455759713 
1074 1 34.512702372573159 20.929802634097349 1.9622507736111483 0.25890300320090759 -0.20501322545516346 0.35179037061226348 
1075 2 25.402777780752952 13.924359872724953 6.2568824666041634 -0.55894845632351764 0.062664376028517363 -0.31304961094465455 
1076 1 25.86410896301706 13.971079891286152 7.1144828044894854 0.28219553941571041 -0.22086775517325377 0.43994049306252681 
1077 1 25.974349006473158 14.487860094538682 5.698682246640522 -0.13020220768132029 0.15586698037640789 0.00089002762586866293 
1078 2 27.553489628600456 20.170762335027828 1.9447307666506983 -1.5545828955992491 0.30757472649101136 0.3304959981948779 
1079 1 28.357739945945699 19.924192237957939 1.4881705868316089 0.4933015052380379 0.4783501244534295 -0.036360620250423276 
1080 1 27.507749610774738 21.14661271990218 2.1160908343236748 0.8422334171669642 -0.99346116246921068 -0.42140297301214552 
1081 2 33.065921801809175 13.82318983296013 5.5510521884232311 0.97931568191851859 -0.46197700509907724 -0.38313918988098844 
1082 1 32.401831540147526 13.742929800901795 6.2328124570877028 -0.56545462677109437 0.19426117155761116 0.52471656680670242 
1083 1 32.887321731596927 14.599030138363352 5.0072219740009558 -0.12920880312266037 0.31704051164688718 -0.23456537340115469 
1084 2 28.632570054386058 18.494961674268716 11.343904472145436 0.53829131587357126 0.10805862369601874 0.10652665274122972 
1085 1 29.339800333315289 19.205691954539517 11.247704434031638 -0.55502379204503471 -0.49573230403820273 0.12333566533220942 
1086 1 27.816139732435651 18.835801808624929 10.911804301741313 0.010431219631134407 -0.26608425977384892 0.058411457175144066 
1087 2 35.96840294645687 16.985461079188624 3.6025214203462097 0.38414797167031373 -0.00035303659982480196 0.018963401976565167 
1088 1 36.654203216403793 17.698641360504357 3.7030314597129048 -0.10715124993344027 -0.66900131722194423 0.20771378630979881 
1089 1 36.459403140027348 16.130270742372215 3.5458113975868737 -0.22995593989316776 0.59771152605740518 -0.086608920414397911 
1090 2 36.05150297892947 20.622512513099981 2.9292411545360437 0.83506822702936201 0.7533088731801878 -0.6549840247326596 
1091 1 36.797403272910948 21.276762771135044 2.5992510246562035 -1.0441353477451256 -1.0476496976086402 0.92073017291987402 
1092 1 36.482803148754797 19.852302209745911 3.3689113282076777 0.32738657468984922 0.61527876533809556 -0.33264362832755784 
1093 2 33.32763190488491 13.241098603491791 8.4979333498477914 -0.15132444164363637 0.27368722393778577 1.3212601294008155 
1094 1 32.585731612739039 13.840749839896601 8.6362434046559606 -0.61492488348983376 0.44893757713273452 -1.0058793787016578 
1095 1 33.485451967180445 13.190999583662011 9.4716737337379833 0.59674252047704535 -0.71810164246398656 -0.26643665237704095 
1096 2 25.563613844627277 19.709822153336333 7.4705629450561899 -0.61517528951320033 0.2571558291075231 -1.6100227351585756 
1097 1 37.071003380897977 19.811222193095574 7.0126527643265346 1.5746897919640994 -0.10287415437561305 1.0525143871678586 
1098 1 26.244649112998733 19.941942244912809 6.7899226767786871 -0.757349858219586 -0.19758301030229711 0.68684638221449934 
1099 2 30.530740802379643 23.487303642372552 10.706404220606341 -0.14598933320924307 -0.084807101341693114 0.27565664517829891 
1100 1 30.421980759623885 24.083103877368384 11.482604526852114 0.13694972953855383 -0.72683172063506729 -0.42426645912873195 
1101 1 30.273000701025207 22.580303284886678 10.998304335880018 0.23633461818632043 0.66886532023076717 -0.11805395832166651 
1102 2 32.727901668672978 19.730182161240222 9.7889938589095102 -0.85384242261973931 -1.0658950851016837 -2.5428765400194551 
1103 1 32.864471722672079 19.139591928809907 10.536504153910284 0.04189988121892111 -0.76773183307443427 0.86279679043618773 
1104 1 32.512961583996173 19.122511921585694 8.9883335432487677 0.40582775663914739 0.8837587068953312 1.8286036081130865 
1105 2 33.004591777850479 23.89120380163483 2.8631611285298542 1.4260315083215405 -1.6426176357773712 -0.31667020322445538 
1106 1 33.49610197177671 23.936103819434909 3.7052114607873969 -0.29163829412833803 0.46875661620122755 0.039684874833085755 
1107 1 33.412211938587028 23.015903456632369 2.5019509864080365 -0.99036699493006597 1.3347571831622638 0.026908523996495622 
1108 2 26.346339152981017 23.390903604378646 7.7483730546206555 -0.015150582935311956 -1.7283700912855702 -1.2825801920878535 
1109 1 26.564249238920219 23.360403592763419 6.763672666187734 0.15608426528240568 0.17056661199234871 0.90080946699803399 
1110 1 26.601119253463946 24.224503933367018 8.1137331986204586 0.22145104320705988 1.6821563362755811 0.31881937785300207 
1111 2 35.610002805164186 15.139350351582346 7.6400330118777164 0.075504144632300318 -0.68729266895958785 -1.2245199460081648 
1112 1 36.417003123109936 14.78027021016811 7.1720428271361696 -0.31745285752149699 0.2042167216381231 0.10681460101225726 
1113 1 34.923602534518572 14.84638023628861 6.9902727557814153 0.22711377351448109 0.3062557775273862 0.92879735311298695 
1114 2 26.907209374122303 14.042599919323095 0.000299719091655248 0.0099530283405812256 0.70888725116628315 0.25798309193898195 
1115 1 27.150119469946532 14.890090253082214 0.41754716480047227 0.053296151103195015 -0.43779743350487665 -0.063917930565093192 
1116 1 25.943018994164827 14.115629948174693 0.056515422074285927 -0.48079876088229645 -0.17735682293455701 -0.057523432701652076 
1117 2 35.675002830759425 17.84724141906624 0.71507328207278165 0.61575634601190665 0.74538828262446866 0.39714617294312604 
1118 1 35.845102897335593 17.773651390021161 1.6739606597453953 -0.65841115135438455 -0.60064005855001201 0.33166503083660476 
1119 1 36.352203097394806 18.583571709391578 0.5653902226651798 -0.41729498435991563 -0.27537145199212054 -0.66587000341532943 
1120 2 27.237319504459386 15.599120533049142 4.9864719656693781 -0.48669309201937999 -0.16624996642436873 -1.6330597440133838 
1121 1 26.731929305094937 15.829720623949255 4.1355116301538226 0.82759914355160902 -0.21174800076402242 1.3273462898649606 
1122 1 27.901219766102631 14.92085026533535 4.6764418434040333 -0.24767001164947397 0.62455039498067011 -0.20822197375096549 
1123 2 25.592463855776362 19.04096188990377 3.8923715343351719 -0.67101733965815602 -0.23604103664729878 1.6133796145838264 
1124 1 26.082569048758856 19.100301913335553 3.0827912155547059 1.124605940965629 0.13096398747888782 -0.80095516073007733 
1125 1 26.166259082068425 19.333572004884132 4.6485718324612497 -0.027479254344353096 -0.19655188313120139 -0.95065096945390815 
1126 2 30.414840756760082 19.518502078048858 3.9435015548830892 0.2699173301296191 -0.54114932954880435 0.51726627274356807 
1127 1 30.760470893139811 19.080051904968837 3.1271612327464373 -0.49494672853441457 0.33675536104202874 -0.15000772189474088 
1128 1 31.037421002426036 20.246822364841265 4.1982316549991072 -0.30505470955663072 0.19969166729035265 -0.30295657349684346 
1129 2 28.954370181105457 22.654503314492153 2.4244409560085671 -0.77636555379414407 -0.60095727675423616 1.7604030106831881 
1130 1 28.514420007601672 23.405003609949571 2.0140607937514381 0.22264798159525118 0.80311106975045721 -1.5148407356367821 
1131 1 28.567290028429483 22.789203367363221 3.3200413086862963 0.86826570209322729 -0.5791879583665307 0.044325810040016941 
1132 2 26.786569326316958 24.803304161090679 3.1990812610727763 -0.79030182095656731 0.55973833055588162 -0.34143564987045816 
1133 1 27.514369613421081 13.002710509481304 2.9333811565523189 -0.075616546027739442 -0.12852603370853338 0.11205937297174988 
1134 1 25.955358998674079 12.951818489028847 3.1264312322579766 0.59393751757466284 -0.54037500898238999 0.57557128648730627 
1135 2 31.524341194208866 17.749321380395969 8.3199832801719591 0.85146557660016009 -0.28529501526343232 -0.71757336130904825 
1136 1 30.646960848336558 18.101901519621105 8.1110631974428156 -0.12914132748623036 0.11102325902968078 -0.42003476812608165 
1137 1 31.973371371265642 17.494061279671598 7.4620929415344177 -0.85649760921497653 0.20749060575343248 0.82483181184238907 
1138 2 31.081761020032637 20.982532655273673 1.2902905085972374 1.3630831705849458 -0.90645236418027264 -0.75461801850847532 
1139 1 30.706080871635631 21.551242879123738 1.9729407776542569 0.029934303594736051 0.3175190388323379 0.42795528306987668 
1140 1 32.097721420154379 20.934742636163243 1.3992405513713932 -1.7066953010816255 0.56296630467548014 0.15783394016340671 
1141 2 28.915480165920499 15.582190526396486 9.5824037778264124 0.13373007684629873 -0.22913531143179058 0.60153390250289984 
1142 1 29.004000200700432 15.824590621864965 10.533204152448825 -0.22998337111943104 0.011346726651048824 -0.78983992342286302 
1143 1 28.466259988845326 16.311440813557461 9.1173235941186395 -0.042623029756656466 0.18325770120596563 -0.007640891808153534 
1144 2 31.077501018088292 17.954391461331877 1.8283107208136733 0.6425329738920007 -0.94311740015809242 1.3201625700082698 
1145 1 31.730191275470972 18.343201614426036 1.2104304773574766 -0.18343428871494749 -0.2358207105971977 -0.11489348679875482 
1146 1 31.616221230678878 17.424011252473289 2.4937309831332848 -0.39943094594781753 0.62343284293382284 -1.1070703093765824 
1147 2 26.070129044044961 19.070471901450986 10.195404019445339 -0.72410869841890313 -1.5615951297997315 4.5238238834834439 
1148 1 25.655458880787535 18.199481558230602 10.038903957416879 0.12663163176062953 -0.21556726096741172 -0.32379883944086663 
1149 1 26.291779131711039 19.449652050660383 9.4123637104205145 0.52065187780501487 1.7973154846450534 -4.1347112008487645 
1150 2 26.563679238865021 13.693609781782461 8.6733834191701309 -0.4333312551355411 -0.66877518702736982 -0.35161872043699793 
1151 1 25.709175901597103 13.866109849565829 9.1501236072656038 1.1126944224724482 0.36183855537841314 0.30303138366742521 
1152 1 27.339799544629575 14.183539974803711 8.9791935399963361 -0.4415718373937782 0.34967540650996348 0.67436031217203984 
